# LAMMPS data file — boundary s s s

162 atoms
4 atom types

-39.73681068 39.91423988 xlo xhi
-32.37892723 29.73111725 ylo yhi
-20.22869230 19.77130770 zlo zhi

Masses

1 12.011000
2 1.008000
3 15.999000
4 14.007000

Atoms  # atomic

1 1 -24.40341949 -16.45075417 -0.14402358
2 2 -24.43832016 -16.74028969 0.93430120
3 2 -24.73681068 -17.35282707 -0.66121268
4 2 -24.70808411 -15.39689636 -0.22198802
5 1 -22.86392212 -16.41882515 -0.36370647
6 3 -22.20249367 -17.37892723 -0.72108936
7 4 -22.25681877 -15.24311256 -0.14398155
8 2 -22.79427338 -14.38472271 -0.17174616
9 1 -20.82769585 -15.12843800 -0.33141488
10 2 -20.36080933 -15.86044216 0.32233652
11 1 -20.45474815 -15.38368416 -1.75053704
12 2 -21.25471687 -15.04180622 -2.46227002
13 2 -20.32674599 -16.51185226 -1.98713768
14 2 -19.54937935 -14.85507965 -2.14176297
15 1 -20.38932419 -13.66394806 0.00387294
16 3 -21.15857697 -12.71693993 -0.03652370
17 4 -19.10184097 -13.52977753 0.36349350
18 2 -18.47781563 -14.39491177 0.31585506
19 1 -18.46795273 -12.27004528 0.52723068
20 2 -18.78761292 -11.70720482 -0.38716072
21 1 -18.80512428 -11.58433247 1.85036457
22 2 -18.14219475 -12.07481003 2.51216030
23 2 -19.83530045 -11.72532654 2.18391061
24 2 -18.52642822 -10.49515343 1.62928033
25 1 -16.95785713 -12.47587776 0.41674358
26 3 -16.42487335 -13.55911350 0.63113141
27 4 -16.26148987 -11.38328552 0.10554222
28 2 -16.64975357 -10.43531036 0.02435854
29 1 -14.81498051 -11.36576271 0.04527378
30 2 -14.40251827 -11.74158669 0.93573248
31 1 -14.37909126 -12.22700214 -1.09917653
32 2 -14.67008972 -11.73456383 -2.03268719
33 2 -14.95113468 -13.19312000 -1.04846668
34 2 -13.29790211 -12.35706043 -1.10914910
35 1 -14.34159088 -9.88257122 -0.15651071
36 3 -15.15542603 -8.98223877 -0.31686363
37 4 -12.98748493 -9.81209469 -0.14030656
38 2 -12.44624996 -10.63713264 0.26585621
39 1 -12.14844608 -8.59188557 -0.26800647
40 2 -12.39721584 -8.07545662 -1.17140687
41 1 -12.44212055 -7.69872808 0.91669154
42 2 -11.99830151 -8.15726089 1.83582115
43 2 -13.53269958 -7.75287437 1.07509422
44 2 -11.96369362 -6.68855333 0.66510361
45 1 -10.66372681 -9.04136658 -0.14158447
46 3 -10.43616581 -10.16663361 0.31538886
47 4 -9.75372601 -8.14587021 -0.60083586
48 2 -10.04191113 -7.16569710 -0.79811776
49 1 -8.29026604 -8.27154827 -0.57065833
50 2 -8.03017521 -8.52496147 0.45573491
51 1 -7.82700586 -9.13578510 -1.67700887
52 2 -8.30600739 -8.80915928 -2.64727640
53 2 -8.05395222 -10.19432735 -1.54795742
54 2 -6.78393698 -9.24078083 -1.94087350
55 1 -7.78462076 -6.81178904 -0.56695682
56 3 -8.47283936 -5.83675385 -0.80866271
57 4 -6.41827774 -6.65958405 -0.32182094
58 2 -5.78378344 -7.41762209 -0.24526189
59 1 -5.73623466 -5.36486912 -0.55601799
60 2 -5.84700394 -5.10409594 -1.60753834
61 1 -6.32104874 -4.27723122 0.39746565
62 2 -5.93027163 -4.32954311 1.34110534
63 2 -7.36015415 -4.40412188 0.41251358
64 2 -6.04943991 -3.31251311 0.04490144
65 1 -4.23995066 -5.53591919 -0.19257763
66 3 -3.84116316 -6.61514997 0.20439047
67 4 -3.43279290 -4.44122219 -0.28502893
68 2 -3.83632255 -3.59674311 -0.70385218
69 1 -2.05134797 -4.30940771 0.05478764
70 2 -1.93158543 -4.51460552 1.08219695
71 1 -1.19537139 -5.28436852 -0.78828496
72 2 -1.49582171 -5.20938063 -1.89264667
73 2 -1.49087584 -6.29640770 -0.45812839
74 2 -0.17104676 -5.23374367 -0.46070594
75 1 -1.72651935 -2.82119966 -0.27632150
76 3 -2.57912350 -2.03682590 -0.73510677
77 4 -0.40242153 -2.54662490 -0.19215424
78 2 0.37665734 -3.19201374 0.10930334
79 1 0.21122248 -1.31114233 -0.45838463
80 2 0.25420487 -1.17246258 -1.54165697
81 1 -0.50211787 -0.14705579 0.25556970
82 2 -0.27195221 -0.10297274 1.29695737
83 2 -1.58233547 -0.20659627 0.16052933
84 2 -0.24216563 0.74060851 -0.30419296
85 1 1.68654716 -1.40312743 -0.08960035
86 3 2.16377258 -2.43867779 0.36116999
87 4 2.38353920 -0.24937807 -0.24871479
88 2 1.95972109 0.56264150 -0.70260596
89 1 3.83531713 -0.16482596 -0.33884242
90 2 4.21133709 -0.56762481 0.61038452
91 1 4.44579172 -0.95619082 -1.49760139
92 2 4.00268364 -0.65601540 -2.50133562
93 2 4.08852577 -2.00822377 -1.38789964
94 2 5.52861118 -0.80720073 -1.59103501
95 1 4.26965284 1.31960320 -0.29454100
96 3 3.54822683 2.25956941 -0.55350792
97 4 5.59928465 1.49936736 -0.14960326
98 2 6.31592083 0.77754176 0.00991076
99 1 6.27089024 2.73839784 -0.03830297
100 2 5.86621618 3.39826393 -0.88905138
101 1 6.03171206 3.61745262 1.28761911
102 2 6.20686531 2.91281199 2.09307742
103 2 4.96985626 3.90860558 1.35553038
104 2 6.74244547 4.46366119 1.36341071
105 1 7.73619413 2.50666761 -0.17617847
106 3 8.22538376 1.41841125 0.18809246
107 4 8.48217964 3.59099150 -0.65952343
108 2 8.10845661 4.49862719 -0.90882397
109 1 9.90826321 3.50729680 -0.89072597
110 2 10.33996773 3.08396125 0.04754185
111 1 10.27845478 2.86127305 -2.18733168
112 2 9.85607338 3.48978853 -2.96954489
113 2 9.91493893 1.85758865 -2.26639318
114 2 11.32326221 2.86759853 -2.27822113
115 1 10.34267426 4.94019222 -0.95100445
116 3 9.55382729 5.77311420 -1.36181974
117 4 11.60076237 5.16272259 -0.47384077
118 2 12.30800915 4.41639566 -0.29300049
119 1 12.16217613 6.45182562 -0.23782934
120 2 11.96929455 7.03207350 -1.16324353
121 1 11.44180489 7.34095001 0.90211630
122 2 11.17512226 6.71053696 1.73937297
123 2 10.60706711 7.81042671 0.42812866
124 2 12.10703373 8.07470512 1.26072717
125 1 13.61361599 6.28837013 -0.06130685
126 3 14.04009914 5.19784451 0.21590242
127 4 14.37693977 7.40740824 -0.08785120
128 2 14.09441090 8.38115788 -0.26917470
129 1 15.82675648 7.46161127 -0.13905326
130 2 16.29513359 7.02374315 0.76060033
131 1 16.16081810 6.78239727 -1.54110956
132 2 15.36701965 7.13761330 -2.14453864
133 2 16.22483253 5.68966293 -1.33349586
134 2 17.08440971 7.23987961 -2.00226045
135 1 16.09628296 8.97861862 -0.29413193
136 3 15.25158691 9.76857853 -0.64561445
137 4 17.34367180 9.24084663 -0.03271642
138 2 17.89879799 8.57386780 0.38207549
139 1 18.07349586 10.48147202 -0.15262741
140 2 17.75325394 11.02410889 -1.03712761
141 1 17.88769722 11.27196026 1.09424686
142 2 18.10531044 10.63096046 2.02818513
143 2 16.80436516 11.40039444 1.13008463
144 2 18.33843231 12.26402092 1.09850550
145 1 19.52990913 10.13777065 -0.28434074
146 3 19.94721413 9.13778973 0.31216243
147 4 20.26847839 11.13108253 -0.86211056
148 2 19.72493744 11.94178104 -1.20888221
149 1 21.69095230 11.04476833 -0.91115105
150 2 22.18127823 10.61689758 -0.03890486
151 1 22.22679901 10.24945259 -2.13377810
152 2 23.13909721 10.85869312 -2.53106236
153 2 21.45610809 10.28982544 -2.94692373
154 2 22.70573997 9.24080086 -1.86836183
155 1 22.15910149 12.47285843 -0.92154372
156 3 21.47927094 13.41160774 -1.20546734
157 4 23.47348785 12.70839119 -0.62409264
158 2 24.03325081 12.04737949 -0.11804117
159 1 23.91806793 14.03976822 -0.54672211
160 2 23.24384308 14.73111725 0.07904372
161 2 23.93904495 14.57612514 -1.50041914
162 2 24.91423988 14.08609009 -0.01167537

Velocities

1 1.388624623712e+00 -4.739306176598e+00 3.419877252142e+00
2 1.479571866678e+01 -3.069110211901e+01 -2.048416371720e+01
3 2.011015942388e+00 -4.974709709206e+00 -2.642935625562e-01
4 -1.341895750800e+01 1.383352448317e+01 1.223519281273e+01
5 3.009081493834e-01 5.136945057759e+00 2.130484398807e+00
6 -3.392909152227e+00 1.456009408027e+00 -3.786139984689e+00
7 3.706997385784e+00 -2.106837703095e-01 -7.801059403957e-01
8 -1.071148193774e+01 1.923140150837e+01 -2.430853191246e+00
9 -1.951930496827e+00 -1.604705976565e+00 2.425783428626e+00
10 5.748682116761e+00 6.492562924547e+00 6.777105546443e+00
11 9.759691174122e+00 -1.852071763266e+00 -2.334338683869e+00
12 -1.280119500128e+01 9.689772625024e+00 1.775949717716e+01
13 -1.792470519971e+00 -1.321622919995e+01 -1.296964674607e+01
14 1.023426425374e+01 1.169189043921e+01 8.544183729682e+00
15 -3.032790835373e+00 1.057981161226e+00 5.317482956361e-01
16 8.634901077101e-01 3.440829291454e+00 8.828651671042e-01
17 2.864966634693e+00 2.851788354518e-01 1.220063165245e+00
18 9.930590446762e+00 -2.292204586088e+01 -5.028644282167e+00
19 -2.143532783257e+00 -2.911426928645e+00 -1.253849326021e+00
20 2.351643717748e+01 -1.362010861931e+01 1.523167292585e+01
21 -7.668997107909e+00 -1.526102833244e+00 7.416811488599e-01
22 9.221673468948e+00 1.118807478057e+01 1.247988819113e+01
23 -5.485681071299e+00 -7.273106177735e+00 1.349654047269e+01
24 -3.009346322862e+00 -2.006740803502e+01 -1.782737380516e+01
25 -4.190031243734e+00 2.265608648168e+00 6.490475831461e-01
26 2.726375685217e+00 -1.687003525208e+00 6.259926533517e-01
27 2.639946678324e+00 -1.305420252390e+00 1.927558803266e+00
28 -1.041254241371e+01 -5.711082375361e+00 -6.004995069045e+00
29 -5.449554646608e+00 2.219179766471e+00 -2.139110969950e+00
30 1.965409317005e-01 7.562469855829e+00 7.024237185755e+00
31 3.032223029034e+00 -4.488076906560e-01 -1.929010542350e+00
32 -1.254021334880e+00 -2.654291102626e+01 -2.276405721799e+01
33 -2.080695884504e+01 -1.568736658456e+01 6.288718772614e+00
34 -1.424379750621e+01 -5.948752555108e+00 2.043773920386e+01
35 -1.623528694736e+00 3.360928371885e+00 -4.254584287300e+00
36 -8.111684908319e-01 -3.751154192727e+00 -1.338669284112e+00
37 3.546040184826e+00 -7.289168531967e+00 1.833236676623e+00
38 3.739741697606e+00 -9.346380357640e+00 -2.274746736355e+01
39 3.287010054981e-01 -2.412948478224e+00 1.060327555973e+00
40 3.437490177931e-01 2.519706451811e+01 -3.765225787959e+00
41 -4.664175115186e+00 8.169760662338e-01 1.002545747500e+00
42 2.138093916152e+01 1.313686430576e+01 5.613822950695e+00
43 2.301874344791e+01 -1.870004626657e+01 -1.006372398438e+01
44 -1.457566578198e+01 -6.131971655468e+00 -2.165620353041e+01
45 2.894443085473e+00 -1.012689900375e+00 -6.702603736238e+00
46 -4.010005566530e+00 1.237906822544e+00 3.309335791672e+00
47 8.426061422714e+00 1.229629101151e+01 1.748778142044e+00
48 -1.556610340458e+01 -3.353852893322e+01 4.211282234686e+00
49 -3.704649649063e+00 -1.892822416085e+00 -2.789383148313e+00
50 -2.214735796443e+00 1.676858946995e+01 2.470480106735e+00
51 -7.229139930983e-01 -4.719572345512e+00 -7.631688961452e+00
52 -7.649952079517e+00 -8.460358731536e-01 2.781073239093e+01
53 2.049306268427e+00 1.545915669005e+01 -7.854257212507e+00
54 -1.863996628656e+01 -1.518193894129e+01 -1.140829613709e+01
55 9.699638378223e+00 -3.743136975714e+00 3.821074801464e+00
56 -3.565200462770e+00 3.678308303489e+00 1.519975692184e+00
57 -6.610007148602e-01 -1.720149422194e-01 -2.763157200343e+00
58 7.017017205920e+00 -7.157197645030e+00 -1.927960698617e+01
59 -5.823682691819e+00 7.864995047122e-01 7.196068574521e+00
60 2.516776211379e+00 -1.866261051078e+00 4.496238350718e+00
61 5.951573763463e+00 9.997468591226e-01 -1.872634352330e+00
62 1.740266909127e+01 6.744628550800e+00 2.415847969034e+01
63 2.882401535965e+00 -1.926172542282e+01 -2.152206887057e+01
64 2.597021214887e+01 2.711442672241e+01 -2.823958552476e+00
65 -1.746220953721e+00 6.659940204294e+00 -5.044912135871e+00
66 -3.532822202552e+00 2.540170505219e+00 -1.558095049936e+00
67 -2.161391089898e-02 -6.897173313661e-01 1.424540429940e+00
68 2.214064092101e+01 1.424961807112e+00 1.012959242242e+01
69 -9.342828648248e+00 -2.220143767543e-01 -3.842680291279e+00
70 -1.917275317175e+01 -1.381393022853e+01 -5.255987538585e+00
71 4.173854725378e+00 -6.044497374582e+00 1.395906160296e-01
72 -7.616312410848e+00 -5.154519231227e+00 1.577405830302e+01
73 8.464919507833e+00 2.103817610672e+01 -2.430478756817e+00
74 -1.094764763238e+01 -3.521450483864e+00 3.814638417451e+00
75 8.046615359993e-01 -4.941659259720e+00 4.123705145248e-01
76 9.011576658400e-01 9.940225326523e+00 7.410705358172e+00
77 -3.600625858119e+00 -1.212737212789e+00 -6.175620484145e+00
78 -9.292220557272e+00 4.964680007205e+00 1.896889242925e+01
79 -3.322504175537e+00 -2.981007349257e+00 -9.785399700357e+00
80 -2.558844867463e+00 -1.671249672826e+01 -8.328440012574e+00
81 -3.995937704288e+00 -4.295633970850e-01 -8.010134935670e+00
82 -2.307761320829e+01 3.349449611771e+01 -2.025202730427e+01
83 -1.725317840845e+01 2.889589127319e+01 4.569866995339e+01
84 -1.842953487134e+01 -5.792804970268e+00 5.372899655625e+00
85 7.877839069310e+00 -4.497201273702e+00 -1.117754399592e+00
86 3.069310962347e+00 1.716670233771e+00 -1.485249122819e+00
87 -5.647233302563e-01 -5.801961886482e+00 -1.005076149399e+00
88 -4.190455255055e+00 3.652189275169e+00 -8.735672468318e+00
89 2.148845755423e+00 4.615042000865e+00 7.083061829729e-01
90 5.533366037671e+00 8.361695422878e-01 1.327560364772e-03
91 -3.288208372247e+00 1.442294358352e+00 -4.433442530464e-01
92 3.292695216123e+01 2.474993596330e+01 6.069627044990e+00
93 -1.200340561851e+01 -1.749898427437e+01 1.873748368261e+01
94 4.133222889868e+00 7.552980238880e+00 -2.744351664850e+01
95 4.226425094084e+00 2.070836566394e+00 -5.060337912619e+00
96 -1.861811785630e+00 1.041285190910e+00 2.071647175091e-01
97 -1.232941488396e+00 -4.367130828107e-01 -1.063326497697e+00
98 2.399911424304e+00 2.314756323878e+01 -4.037527194453e+01
99 -1.079349111957e+00 8.043838399424e-01 1.348872675210e+00
100 -5.850467721578e+00 -2.763442091372e+01 5.159590633622e+00
101 7.871698701945e+00 -6.989951852864e+00 3.936546160920e+00
102 -5.167923792545e+00 -9.646734057695e-01 -1.656280517179e+01
103 -5.261221632395e+00 2.045058010599e+01 9.165560742327e+00
104 2.725043233089e+01 1.852148476404e+01 6.907130215024e+00
105 7.947274984161e+00 2.000533446818e+00 3.773220626063e+00
106 -1.171007946650e+00 2.627556011762e-01 -2.753772173349e+00
107 4.175973362521e+00 -4.972356938175e+00 3.301462438790e+00
108 -2.999069985522e+00 1.842450836420e+01 1.181167666538e+01
109 8.296857162104e+00 3.330209554774e+00 -7.163936495541e+00
110 -1.053218659797e+00 -1.843646523719e+01 -8.152892198354e+00
111 6.886811255193e+00 2.905302023028e+00 -3.185092231025e+00
112 -1.594645929206e+01 5.156844766262e-01 -1.913731335842e+01
113 -1.055749015166e+01 4.908119858200e+00 1.817383914226e+01
114 9.576229387771e+00 -3.604353253163e+01 4.787894353019e+00
115 3.282638229710e-01 1.886137272801e+00 7.365220757668e+00
116 -8.146679198264e+00 -2.333966964535e+00 2.333188707355e+00
117 -6.674215143898e+00 6.228399323836e+00 1.554438536006e+00
118 1.331733825865e+01 -8.981329666360e+00 1.280105282300e+01
119 4.869126186095e+00 1.061247217729e+00 1.068187092381e+00
120 4.252681864598e+00 -1.358100450375e+01 -2.320725847013e+00
121 -6.950596415699e-01 1.747162190746e+00 4.556293889937e+00
122 -1.665148797807e+01 -1.966476533918e+00 2.330429700212e+01
123 -1.169714539118e+01 -1.293454848727e+01 3.182413125559e+00
124 1.328274972162e+01 1.797395762358e-01 2.090544826174e+01
125 3.904491414132e+00 3.836253860666e+00 2.525161434220e+00
126 9.190718932730e+00 -8.100792243706e-01 -7.910891128539e+00
127 6.769838561643e+00 -1.931458833251e+00 4.552477522767e-01
128 2.060011732890e+01 -2.520462546333e+01 -1.968925660004e+01
129 -7.297175382104e+00 -3.618954368431e+00 2.003465697074e+00
130 8.245829038282e+00 4.345979559943e+00 -2.222376216736e+01
131 -1.052736038957e+01 2.476944420738e-01 -2.149928115994e+00
132 7.226448663647e+00 1.104220495379e+01 2.174631156355e+00
133 1.195740716671e+01 3.605649826674e+00 8.338276061809e+00
134 -1.108498667633e+01 -2.825408929423e+00 3.095420990970e+00
135 3.739226059596e+00 -1.794315853778e+00 2.375008598026e+00
136 -1.049662261764e+00 -4.641142713647e-01 3.275349047269e+00
137 -8.410572088385e+00 -5.471020413748e+00 -6.254716271816e+00
138 -3.670935873292e+01 -1.066955804670e+01 1.178910174545e+01
139 -1.298243701341e+00 9.013481565651e-01 4.963667404958e+00
140 2.088540017340e+01 -1.087586439915e+00 2.129282086003e+01
141 4.198299173287e-01 -3.816103102580e+00 -2.708738762106e+00
142 -2.328983995897e+01 -1.397094576193e+01 -5.631844467954e+00
143 1.264093545544e+01 2.706887242155e+01 -2.174264938026e+01
144 6.179441567037e+00 -1.636845941156e+01 7.467306024180e+00
145 -5.973742959590e-01 -8.343611442849e+00 4.230337405600e+00
146 -2.388840289260e+00 -2.108100656528e+00 -4.223908510384e+00
147 -2.761028589362e+00 1.805667028286e+00 -7.985975712932e-01
148 5.170075421167e+00 5.693275366139e+00 2.077490040682e+01
149 -1.562108990220e+00 -6.730181097321e+00 4.863433739337e+00
150 -5.214532982412e+00 1.753329244728e+01 6.030781094673e+00
151 -5.976061587357e-01 1.589404817808e+00 8.890949218689e+00
152 3.267230744330e+01 1.091412146678e+00 2.519906297227e+00
153 1.692998505074e+01 -1.330281958299e+01 5.239422065933e+00
154 -4.068400776451e-01 4.937988320184e+00 -1.310945454748e+01
155 -7.243809779355e+00 -9.446782064482e+00 -5.092025345914e+00
156 -1.811075552728e+00 -1.157664544570e+00 7.649141153795e+00
157 4.667212846122e+00 -4.059955637624e+00 1.467304777894e+00
158 -6.403615780439e+00 -4.473235358848e+00 2.915297717108e+00
159 2.821621485794e+00 -1.546033077320e+00 4.848072302083e+00
160 -1.796346007287e+01 9.971773519544e-02 4.086316334963e+01
161 3.509195119294e+00 2.254543282279e+01 1.439674256312e+00
162 9.136016226058e+00 -8.932380245547e-01 -2.680626421184e+00
