Random water at 1.00000000 g/cm^3; seed=574111

3000 atoms
2 atom types

0.0 31.042816761035 xlo xhi
0.0 31.042816761035 ylo yhi
0.0 31.042816761035 zlo zhi

Masses

1 1.00800000 # H
2 15.99900000 # O

Atoms # atomic

1 2 17.132132885295 13.952245555139 13.968326213625
2 1 16.798064195433 14.548467439361 14.638512318545
3 1 18.084118117175 14.029803911625 14.031100887022
4 2 4.456738609923 1.505762961495 20.085586076920
5 1 3.649518322636 1.783474819499 19.652569481722
6 1 4.227226386118 1.458556500825 21.013663406239
7 2 26.602610314918 26.302830214552 26.398043858342
8 1 26.037665157859 27.052381592152 26.585771165504
9 1 26.364171407294 26.039238202195 25.509281810124
10 2 23.459893908110 7.938468527559 26.416340628481
11 1 22.649694550080 7.700322796168 25.965679502059
12 1 23.970547961848 8.410499209852 25.758578275975
13 2 17.195043358974 23.182020232296 17.045600720454
14 1 16.337031126615 23.011029120840 16.657259518770
15 1 17.713762350973 23.548743375803 16.329586346747
16 2 26.527067029865 4.621022467276 20.175451186527
17 1 26.925047764357 5.388159535564 20.586965333832
18 1 27.221236634162 4.255707917205 19.626902483151
19 2 29.539423134189 4.742280749287 20.243310701135
20 1 30.371536798168 4.968009158768 19.827539880403
21 1 29.744886892320 4.686067670835 21.176507665289
22 2 17.079498420465 11.019713493992 26.404662703061
23 1 16.337443032052 11.192494083630 26.984086993517
24 1 17.850868642075 11.183445135317 26.947259948578
25 2 10.812840183410 14.027215822734 26.528834680653
26 1 10.326785580877 14.765106917821 26.160732120014
27 1 11.647251127312 14.031565219387 26.059823700563
28 2 1.514361022169 4.812329860748 7.974478085647
29 1 1.063580614519 5.283668042503 8.675098655214
30 1 1.539947613822 3.903676955589 8.274356501464
31 2 17.092791394846 17.254485509891 26.279607977186
32 1 17.929591662149 16.923228835387 25.953623056924
33 1 17.253977030989 17.445928668711 27.203513030555
34 2 11.049734907764 1.708077283467 26.578046532093
35 1 10.171234177160 1.426710217504 26.322506162447
36 1 11.546048210427 0.894410639791 26.666655440052
37 2 7.803525646386 17.024091054461 17.069251646341
38 1 8.443180913423 17.631920360175 16.698284647177
39 1 8.050410999798 16.169949695954 16.714678660964
40 2 26.632892098781 23.528028456038 10.811306425109
41 1 27.083566442029 22.773252976331 11.190039116558
42 1 27.170798882380 24.279174542992 11.061641576879
43 2 1.794841746548 7.950153767775 1.788918152594
44 1 2.575240455875 8.258913835810 2.249219048605
45 1 1.067488638757 8.393200704912 2.225837719654
46 2 14.122517527308 10.669354514966 20.333434444711
47 1 14.258905420326 10.445349658541 19.412862879359
48 1 15.004130700291 10.707591799792 20.704282072816
49 2 1.374155783909 11.085284975363 14.006518387071
50 1 1.988639796861 11.006962869149 13.276787693250
51 1 1.605450370291 11.913392831202 14.427198828034
52 2 20.422622430865 23.462579911587 29.627429554224
53 1 20.777888605021 24.346926765355 29.538275599004
54 1 19.598327740574 23.581530437413 30.099256721695
55 2 29.318807034163 1.449985512733 4.859036044505
56 1 28.938023446122 0.571821379086 4.851070276903
57 1 28.564169204627 2.038659250236 4.873760751879
58 2 26.433360938965 26.608960960438 1.358367142071
59 1 26.451857471614 26.042448508790 2.129699340548
60 1 25.608467180206 26.394419740354 0.922759300493
61 2 23.364613088580 26.172918171514 17.286154046844
62 1 24.252224417714 25.874514819384 17.484480565069
63 1 22.954945079390 25.429793169322 16.843244131215
64 2 20.406769547245 13.874596254738 1.501334029938
65 1 19.788543262081 14.249850675438 2.128400390124
66 1 21.166276092208 13.630103463689 2.030110847965
67 2 10.706394913424 14.046261998891 29.342656962574
68 1 11.452886866484 14.525607836850 28.983200189585
69 1 10.045174847851 14.718927934702 29.505569220196
70 2 10.859082051079 23.400860950322 4.643810168545
71 1 11.123258573007 24.135139541554 5.198136386327
72 1 10.815381338380 23.769726770393 3.761619659362
73 2 1.499465130406 20.017200574802 29.243760783759
74 1 1.954926226885 20.610177056042 28.646127181716
75 1 1.032280028329 20.595919722252 29.846300466081
76 2 4.666838879794 23.486979557814 11.067637587647
77 1 4.474768560740 24.188940845579 10.445873015629
78 1 4.691549323217 23.921587280138 11.920126509382
79 2 1.382726105478 10.732242366431 29.560879459642
80 1 1.998792879298 10.234054210425 29.023755515462
81 1 1.763820322931 10.718044695321 30.438830177825
82 2 16.872360607648 4.431241117992 29.584757632859
83 1 15.954423788522 4.336736802862 29.330409897433
84 1 16.842084210240 4.648307476797 30.516528729017
85 2 29.521283916390 17.154716013025 10.745667174729
86 1 29.580605330481 16.435877654485 10.116394400710
87 1 29.478504941938 17.943707129790 10.205394264978
88 2 23.230486677049 1.487396803439 20.227080470924
89 1 22.723439740813 0.711640552155 19.987628005815
90 1 22.693193980293 1.932403979899 20.882455944153
91 2 17.273579794313 1.418154308833 20.327385183258
92 1 17.688534989822 1.654038007777 21.157085675179
93 1 17.840131509966 1.801909908849 19.658070135656
94 2 7.517338023859 20.296839091309 26.596766565629
95 1 8.051578773787 19.555821432360 26.310914348143
96 1 8.112547512371 20.834414792273 27.119231751568
97 2 29.506399071916 7.622018934594 23.167546656033
98 1 29.144645587022 8.042391343664 22.387384305070
99 1 28.745083065041 7.256227319512 23.617909034580
100 2 20.193667511571 4.685686266370 13.958190187695
101 1 20.684546322652 4.436411048752 14.741217453320
102 1 19.688360235972 5.453277447695 14.225959072328
103 2 14.066818041377 23.389565206608 1.792152604904
104 1 14.228897269595 22.454797981874 1.919323353678
105 1 13.775831419887 23.461181165733 0.883070771122
106 2 14.146068687441 10.726057520846 29.687147877558
107 1 13.219188843823 10.852684806721 29.889857339513
108 1 14.166666191477 9.942716267823 29.137435167008
109 2 7.873696909250 17.048888096562 7.984424101561
110 1 8.048176485231 16.659067709491 7.127786031319
111 1 8.329449933238 17.890339479566 7.962501711919
112 2 13.743515789421 4.797832758748 26.473623199902
113 1 13.578981972251 5.477740645471 27.126988127473
114 1 14.591964793752 5.028740701643 26.095406794973
115 2 13.917743392392 17.031463519897 1.351023472414
116 1 13.788785851443 16.236105999667 0.834295103107
117 1 13.546342945748 17.730310021337 0.812593239554
118 2 26.488012701869 7.541839678481 11.083787784849
119 1 25.927143676372 7.038658666513 10.493477150154
120 1 26.933336552426 6.880542118924 11.613508509241
121 2 29.267167481839 14.107971515314 26.629727883409
122 1 29.912767546768 13.485129813946 26.963644955749
123 1 29.788521126476 14.791555323966 26.208853325170
124 2 7.721806099890 19.980220249061 23.431581478129
125 1 8.369918565235 20.620314370889 23.725624991007
126 1 7.055929415293 20.501543756303 22.983182234476
127 2 20.161891193031 20.212516976245 23.502381576809
128 1 20.687799974029 20.714225134361 22.879532704169
129 1 20.395756399918 19.299822155685 23.333481992649
130 2 1.340982124069 11.074005634154 10.906516989883
131 1 1.082204300715 11.943393822360 10.600853684351
132 1 2.158986429394 11.220292551188 11.381596914079
133 2 17.243355650844 26.209851425120 1.631452957424
134 1 17.674023980335 26.445839237858 0.809828723232
135 1 17.962830164130 26.022563104525 2.234371981589
136 2 23.115561457885 26.223209376376 29.595206724292
137 1 23.655320113173 26.391454072956 30.367596623317
138 1 22.519422901476 26.970834788044 29.551538596447
139 2 11.082375158404 4.795795858145 20.382121412927
140 1 11.993028913031 4.556739672220 20.209512840852
141 1 10.582749983102 4.007818876809 20.168348633813
142 2 1.315353118375 10.695710778996 23.037660853922
143 1 1.108263198980 10.712398242253 22.103280238832
144 1 2.231865933739 10.967689914084 23.085236576210
145 2 7.753983858499 11.093304713200 20.212125993751
146 1 7.002963378789 10.535386226859 20.414430323054
147 1 7.661508837953 11.842796642154 20.800294387161
148 2 29.393030842232 16.857675156571 29.447994443794
149 1 29.845617825481 17.463869102883 28.861542602593
150 1 29.220132284025 16.086028568777 28.908643470758
151 2 4.423859713962 19.930203064401 16.873752036857
152 1 3.715239873754 20.114822874461 16.257306347605
153 1 3.984606658619 19.565819038296 17.642200392241
154 2 10.657144696761 29.682746340048 7.938166378488
155 1 11.495163519801 29.337332151975 8.245811191394
156 1 10.892827876380 30.314412386266 7.258693579252
157 2 29.658180166656 29.558215562255 4.889043003209
158 1 29.815360632800 28.624471305942 5.029213630887
159 1 29.965995461668 29.722234076894 3.997651107905
160 2 1.708744283023 29.507428719269 29.343691774793
161 1 2.097660021961 29.307426601563 28.492236819485
162 1 2.026773631907 30.385790257618 29.552426489677
163 2 1.465213470304 1.459169055275 23.397763763807
164 1 1.229531235477 0.950735729169 24.173767163988
165 1 0.998448255382 1.031529560017 22.679789853254
166 2 13.912438712173 19.952004753210 7.752611229789
167 1 13.489857937932 20.435953424851 8.462154049116
168 1 14.846920789928 19.996444605845 7.955096256033
169 2 17.109951291332 10.861292941220 20.356119493701
170 1 16.926709511983 10.619833861180 21.264057709092
171 1 16.920686214520 10.068584916932 19.854099017098
172 2 13.741589906216 7.981663053351 16.881429834498
173 1 12.960762840990 8.345689339346 17.298593827811
174 1 14.278128001005 7.667479221771 17.609198501598
175 2 20.395902723648 7.792160621332 10.797814702533
176 1 20.497118131196 7.666432009813 9.854321407633
177 1 19.955590849083 8.637962250004 10.881342530541
178 2 17.038121142935 14.039266615403 7.984573724649
179 1 17.553692115690 14.837699095672 8.098257437224
180 1 17.565371258827 13.352889635281 8.393383945229
181 2 17.098282579491 13.736922479957 10.796004417985
182 1 16.642555238393 13.474368129243 9.996248428013
183 1 16.771536138426 14.617544009163 10.980325674358
184 2 26.460771711379 1.795572450394 17.252492637328
185 1 26.847494834672 2.355578419917 17.925597666286
186 1 26.832900240370 2.115971448327 16.430849965582
187 2 23.126831014505 1.765290012482 29.244471202071
188 1 23.891726153129 2.323355020098 29.384937262680
189 1 22.416159556846 2.376515944420 29.050613575460
190 2 4.618981724286 13.984546110111 13.988895014328
191 1 5.062414279977 14.757272107854 14.338886358456
192 1 4.106352964867 13.648456078345 14.724073282209
193 2 7.992321756835 13.932696448896 23.054386063975
194 1 8.933626560015 13.863447388309 23.213702337835
195 1 7.797665270453 13.215633283894 22.450928435217
196 2 20.145173356380 20.068356417086 17.081641917603
197 1 19.335487668377 20.503886007206 16.815268302595
198 1 20.236498685897 20.279035105665 18.010892160738
199 2 26.541996176337 29.257160327816 10.645161713779
200 1 27.237920158601 28.950023642762 11.226185558043
201 1 26.894240608307 30.054297339042 10.249272479928
202 2 1.439665466131 14.155322990592 1.372918869017
203 1 1.124605825074 14.557883956942 2.182186396445
204 1 1.406997659395 13.214193344186 1.544498713578
205 2 23.279902661990 16.855067684262 29.374385348273
206 1 22.666539667148 16.827667179258 30.108733282759
207 1 23.038787192302 17.644440252047 28.889631679379
208 2 26.455318331165 26.546167423574 17.281589745952
209 1 26.048862121308 26.231403063026 16.474156413226
210 1 25.826297606185 26.325838846519 17.968626925207
211 2 10.983241118124 7.968412134486 1.579518650695
212 1 11.546861644876 7.690486698911 2.301544407912
213 1 10.887105821756 8.913114549181 1.700047454153
214 2 23.141657168952 14.138729542350 29.518187064129
215 1 22.350209709295 13.600442970407 29.527691014187
216 1 23.208780564886 14.482519074855 30.408992905522
217 2 17.320651850496 20.296003954931 26.624638765051
218 1 17.026297267823 20.809235083526 25.872188747906
219 1 18.275956181995 20.310711518334 26.566250737183
220 2 17.229203794053 16.961528635015 13.783691571423
221 1 17.959082666794 17.573586582890 13.877998196688
222 1 17.167573525013 16.804893954691 12.841407576622
223 2 4.619836647496 20.301339269460 11.016619493525
224 1 4.521867972145 19.780102813054 11.813454818523
225 1 5.565599764862 20.353100147165 10.878471828435
226 2 16.927045899979 23.202962088797 20.175510848287
227 1 16.993744969120 23.125755945478 21.127257813404
228 1 17.329659568851 22.401596328354 19.840926043450
229 2 19.949243964588 26.510582827412 23.296834743926
230 1 19.819254866135 25.610406605445 23.595192655985
231 1 20.427353452101 26.933205477483 24.010300407849
232 2 26.464431123508 26.289479334863 7.752289140883
233 1 25.528076789613 26.215238131592 7.936573283263
234 1 26.884170318808 25.746944160559 8.419901627714
235 2 4.453481955625 7.830160848100 23.328291236302
236 1 4.248138931282 8.604929358612 23.851550099078
237 1 5.200254842587 7.430458635954 23.774161438159
238 2 23.270113079908 13.891213486602 10.681256786948
239 1 23.696424802616 14.019104251914 9.833828850644
240 1 22.899163287493 13.010148591422 10.632751715158
241 2 7.912913043939 1.409735213273 13.961361783564
242 1 8.161724694987 0.644601826152 13.442810433922
243 1 8.456801940104 1.354331016232 14.747076161426
244 2 4.451386932725 17.165341704839 7.625680459090
245 1 5.174572029704 17.776168255676 7.767546876188
246 1 3.792569581146 17.419154376232 8.272032271262
247 2 17.026823653919 17.142592641330 23.208250265253
248 1 17.876324917116 16.721603845700 23.076538922610
249 1 16.409417448967 16.593650594156 22.724820800977
250 2 4.822405385085 16.994339910346 17.014077521412
251 1 4.578112583608 17.904151353163 17.183771380065
252 1 4.774231779567 16.569212330064 17.870335475661
253 2 26.479474237362 29.441800199166 23.359669713150
254 1 26.429580015902 30.179615555258 23.967428634911
255 1 26.362785933803 29.834989261945 22.494789351063
256 2 26.160601670970 23.259489864698 26.317476755354
257 1 26.365117656060 22.736601185821 25.542239706869
258 1 25.388429987165 23.767048747812 26.067743475830
259 2 29.291033106880 10.837115853593 7.619344464949
260 1 30.219673256645 10.901780204092 7.842229713492
261 1 28.983776012924 11.743561575508 7.605888186295
262 2 7.899847217035 1.722193303042 17.311576243980
263 1 7.901325444285 2.419983441823 17.966800310284
264 1 7.228112205848 1.110812738011 17.613598957442
265 2 13.820766620639 10.930798379683 4.436861732443
266 1 14.084801539553 10.381639944749 5.175063882898
267 1 13.956904495659 10.379109575478 3.666577510678
268 2 20.314486300654 23.308951816689 23.494158128241
269 1 21.167596406414 23.251015420962 23.063950781138
270 1 20.494303168813 23.105679843764 24.412078734257
271 2 23.335884857283 23.481995197121 26.427510085832
272 1 22.785226126805 24.064792801985 26.950342520090
273 1 24.013290678700 23.183488982303 27.034343862764
274 2 13.923347486433 10.999287771247 14.087510672949
275 1 13.900705696314 10.181202716651 13.591067289686
276 1 13.164109094016 11.491038513127 13.774508897649
277 2 14.107916881710 7.702039688536 7.714069317689
278 1 13.972758752804 6.789825073906 7.457498436557
279 1 15.047414513989 7.766408066746 7.885629076462
280 2 4.579025417225 14.209050302870 26.245926654711
281 1 3.806570255287 14.672327015888 25.922013780668
282 1 4.646004111597 14.467559413047 27.165121266562
283 2 1.509042044121 20.328679052694 26.497779791458
284 1 2.089874415886 20.554325488986 25.771178606695
285 1 1.288107649969 21.169455242186 26.898423314635
286 2 17.110875551068 23.411778093841 4.527220736848
287 1 16.525623201401 22.669132915778 4.676182700813
288 1 16.598404401139 24.177176644018 4.787547876958
289 2 20.140925875242 4.786926506033 17.101479020684
290 1 20.489135277121 3.905215336864 16.968936700627
291 1 19.203141531569 4.703036733819 16.928983018181
292 2 20.331590024213 16.931779315963 29.609991276741
293 1 20.032862096326 17.827639932161 29.766283379695
294 1 19.999968224783 16.716878358668 28.738167670330
295 2 29.517678307454 17.095299501049 17.231141927006
296 1 28.780952564006 17.546313428954 17.643517309122
297 1 29.112341091305 16.502531438755 16.598244142582
298 2 1.635156731526 1.538817794530 4.702955891669
299 1 2.583840995230 1.455904627095 4.799679283183
300 1 1.313266269161 0.637414330857 4.712451465268
301 2 23.366435159054 1.457189790442 10.950492701697
302 1 22.954599284237 0.714162003235 10.509434021188
303 1 24.172516991713 1.611897056102 10.458019777559
304 2 1.634789751342 29.615487551007 7.741540512579
305 1 1.261572126791 28.738573585674 7.652308555701
306 1 0.985773973823 30.194362064570 7.341647204211
307 2 4.806941041523 14.015077771335 1.360468344534
308 1 4.700195761890 14.370896413135 0.478294677151
309 1 5.603571778072 13.486685396654 1.311348002875
310 2 23.370397777526 29.621847243427 11.046372928746
311 1 22.866896755330 29.420752154478 11.835219761692
312 1 23.205905676982 30.551260058670 10.887105833213
313 2 20.000412584225 4.429415097085 20.178914757819
314 1 19.799161719922 4.386385180745 21.113729368273
315 1 19.399514036709 5.089975544952 19.834222619375
316 2 4.566179310835 1.653593972669 7.795174589530
317 1 4.310226553321 1.428156287603 6.900804489363
318 1 4.714258540964 2.598970467105 7.771348860327
319 2 17.028558605420 23.144338711880 14.136606130448
320 1 16.155693832026 23.529607007279 14.059747377350
321 1 17.020296025863 22.407494991600 13.525684775719
322 2 7.664753008163 1.459458149801 29.568043129275
323 1 8.242834029995 1.743399697905 28.859924940369
324 1 6.796882847848 1.768099072476 29.307708718016
325 2 26.153191043017 16.940053404299 20.340408043889
326 1 26.143924163274 17.729536441030 19.799240325289
327 1 25.415204804484 16.421138997306 20.020508075223
328 2 14.035250232462 1.322659006324 23.508850654012
329 1 13.444976957440 0.693789547784 23.093721150229
330 1 13.767842327790 2.171528058299 23.156506809000
331 2 26.480306523875 4.837831983447 10.664746226837
332 1 25.579791466956 4.577594945056 10.858604825078
333 1 27.006353206140 4.072172894776 10.895555429453
334 2 7.624925892548 16.931863952154 26.611857744486
335 1 6.668395616758 16.962304809971 26.630699869458
336 1 7.837201935739 16.002485638892 26.698035887452
337 2 7.765275653151 7.692252767524 13.778056599277
338 1 8.611240437880 7.391005710869 13.446657091349
339 1 7.485833864679 8.359569137430 13.151292696910
340 2 20.247983648657 13.755007842881 20.292781584473
341 1 20.190293962238 12.817014033592 20.110926274362
342 1 19.396155132130 14.103333220418 20.029552692071
343 2 20.095816765434 14.128693053521 4.692594294435
344 1 19.662693477198 13.399979618662 4.248057696342
345 1 20.595863097092 14.566812511429 4.003945728912
346 2 10.685917277752 23.473408024930 29.474784149241
347 1 10.207691821309 23.954374235723 28.799355576492
348 1 11.033460135148 24.152798064667 30.052603304495
349 2 26.229563906957 20.304625926969 13.782644265093
350 1 26.259088063917 20.900338073405 14.531301197703
351 1 25.327153043193 20.359016410310 13.468115811239
352 2 26.355336342268 23.365706514182 13.998518844536
353 1 27.167876226754 23.356623100411 14.504412378507
354 1 26.059476256746 22.455390147196 14.003289776440
355 2 23.527844156617 23.179052617607 13.728666632765
356 1 23.301182727720 22.744091609855 14.550655293505
357 1 24.348357960853 22.767337196489 13.457595887254
358 2 29.658125498848 17.315433784209 4.499367360595
359 1 30.529910667674 17.004693419132 4.743627232303
360 1 29.216606897906 16.541348338528 4.149960881252
361 2 20.210578689003 26.634078203041 16.884541335491
362 1 20.729703242941 25.831223771615 16.931084857474
363 1 19.827529329953 26.621673544488 16.007414689574
364 2 23.072671806455 4.751829738202 7.802430966519
365 1 22.748129999165 3.936067194127 8.183791592443
366 1 22.832436763543 5.426098216768 8.437947278637
367 2 10.639165408071 10.727127830054 23.126623475780
368 1 10.578691775044 9.861373225208 23.530410231254
369 1 11.076025710761 10.571414454466 22.289283484738
370 2 19.992370684883 23.521995923681 26.597268761711
371 1 19.477500462540 24.292269588564 26.356812995859
372 1 20.694221228702 23.865489021340 27.150125113759
373 2 13.875335828566 1.340292895680 29.667512058091
374 1 14.497235300933 1.404778326113 28.942726216941
375 1 13.732390948288 2.245967012899 29.942381108005
376 2 1.478209591542 23.284496990120 13.802505633398
377 1 1.038302405736 23.689838253333 13.055235957703
378 1 2.402999341823 23.500425203994 13.682627511004
379 2 17.109621513602 29.415180657141 11.021468685194
380 1 16.990881108390 28.724899461238 10.369054379134
381 1 18.029788974298 29.666138369771 10.940574243177
382 2 23.325066513500 20.057947873767 7.517497980496
383 1 23.509559472263 20.997158377829 7.526319387794
384 1 23.265667936686 19.816350509841 8.441800075494
385 2 10.891687832369 29.501423576553 20.382039488637
386 1 11.838008444833 29.404529683504 20.488438322820
387 1 10.768354419673 30.424437070226 20.160529218420
388 2 29.486747373139 26.312242855611 1.378537749344
389 1 28.878090247731 25.601587317199 1.580371962039
390 1 29.427661550240 26.416372415998 0.428854781093
391 2 11.014300646194 17.049619301478 29.671528080047
392 1 10.411336458258 16.637546786249 29.052769427372
393 1 10.448124455535 17.413552193398 30.352137521142
394 2 4.745446525107 29.685320137699 10.851822753978
395 1 4.507926119340 29.466993603210 11.753016085723
396 1 4.510172793143 30.608455591574 10.758554083758
397 2 29.717738234480 14.147332998963 4.609999303094
398 1 30.542395586430 13.919771608631 5.039403431516
399 1 29.867963241413 13.954765320785 3.684482162997
400 2 17.280904362237 29.571730205219 1.410921808211
401 1 18.095450198835 29.425038009655 1.891783867269
402 1 17.282827219427 28.903094351901 0.725973461051
403 2 1.304179504005 20.248488998272 13.963922148698
404 1 2.159662888890 19.833493814908 14.074190076812
405 1 0.675902643421 19.578440226441 14.233244761604
406 2 10.654680109857 26.280868093275 4.461417982358
407 1 10.114944148621 25.514231552670 4.654253007075
408 1 11.378454532176 26.227948018441 5.085582937538
409 2 1.319500339439 26.559472149821 7.703754257519
410 1 0.739900512141 25.957649238847 8.170771456369
411 1 1.461956520266 27.280159571612 8.317389097319
412 2 26.336012695173 20.060768503607 10.675426113464
413 1 25.731451833807 20.285126149324 11.382816848286
414 1 27.204962147769 20.228681359423 11.040068351398
415 2 1.550827569002 17.186668079898 13.991671011511
416 1 1.063307980165 16.393900687053 13.767893552096
417 1 2.021332176398 17.413509450949 13.189548672464
418 2 23.132973382900 1.443712428620 14.058574227204
419 1 23.437093504895 2.150236060308 13.488866276352
420 1 23.837816852253 1.329168032501 14.695996461698
421 2 7.687993869307 13.843952077235 4.612564974449
422 1 7.370984333944 13.696787388109 5.503676274323
423 1 7.419289069123 13.062138712644 4.130074111006
424 2 20.378677781202 1.692204738932 7.847812067593
425 1 19.717234497372 1.204923528814 7.356607787743
426 1 19.887601825513 2.385081586441 8.289397755689
427 2 29.603337537838 20.359091841144 7.966304471251
428 1 28.674500825914 20.451301360439 8.178416722506
429 1 29.620791619305 20.222714315090 7.019030294770
430 2 16.906199321501 7.596095385335 1.379609486415
431 1 16.932305954520 6.827350059160 0.809889461142
432 1 17.360414944754 8.277560405477 0.884104255447
433 2 1.523396558970 14.058770805849 20.340856231105
434 1 2.467530410216 14.066625864609 20.498277350983
435 1 1.308530424813 13.134338406961 20.216400920741
436 2 20.053888181243 26.619495747738 4.545856366562
437 1 19.542014524191 26.189461052133 5.230901883146
438 1 20.659675869545 27.188687590545 5.020486499173
439 2 4.515170157173 4.662574126747 26.170631553226
440 1 4.313958723680 5.065839502366 27.015097559563
441 1 3.919775763799 5.088001982450 25.553583341228
442 2 7.951547023079 23.281068868944 1.660696044128
443 1 7.431762393488 24.036262843556 1.385490957781
444 1 8.556039606989 23.128280881200 0.934420347991
445 2 13.780538910438 19.991582630701 19.982057665092
446 1 13.464591139611 20.235619094072 19.112083498432
447 1 14.460465864589 20.635641700602 20.179843133460
448 2 11.012447177234 17.212788603929 1.414826789284
449 1 11.254234369217 17.733034406864 0.648592426753
450 1 11.754031171770 17.307076437596 2.012651866937
451 2 26.563271205785 17.084530268748 23.105188145930
452 1 26.931314491701 17.892011863412 22.746371404443
453 1 27.180805244533 16.821890292782 23.787759603004
454 2 16.892227455280 14.025287097425 1.465671467937
455 1 17.592312042803 14.326941061633 2.044565496401
456 1 17.073024040559 14.451722052583 0.627997507633
457 2 29.666170157447 10.902313549029 23.300051187536
458 1 28.911116613862 11.342514792799 22.909732277792
459 1 30.125049318793 10.509274055459 22.557635056396
460 2 20.087110095771 29.250652262309 7.610552727353
461 1 20.801382426691 29.720312328026 7.179894742460
462 1 19.754739037183 28.652935981230 6.940853864619
463 2 1.617674295448 23.390170656161 26.493053547818
464 1 0.876617883765 23.044572171750 26.990676821264
465 1 1.848266544279 22.686702085274 25.886266085395
466 2 23.113410009387 4.803645702043 1.761382733635
467 1 23.288482353286 4.420015900407 2.620690414095
468 1 22.505993629885 4.192263176310 1.344863119280
469 2 10.851267481573 13.819896387418 23.397813295859
470 1 11.320754163222 13.737348576440 22.567753084395
471 1 10.066114790713 13.284404854479 23.283726003900
472 2 20.288445419413 23.158553879666 4.806728710252
473 1 19.518519076607 23.487136711717 5.270925424087
474 1 20.849099920889 23.926721760237 4.698025089189
475 2 1.384396141736 26.313332017400 4.645238136670
476 1 0.529865212341 25.970317164738 4.383800684189
477 1 1.181584131265 27.030359542772 5.246046472388
478 2 16.903148759414 29.344762711437 17.104468774807
479 1 16.747470740069 30.289007608193 17.124412927925
480 1 17.848521768285 29.254811337139 17.224512368385
481 2 17.272414973424 26.391048251932 29.603855374788
482 1 17.445523000288 25.865411252702 30.384861902338
483 1 17.941005171147 26.116075503719 28.976472736162
484 2 29.311138446763 16.981187232143 1.682126871817
485 1 29.906215066452 17.692970981918 1.446585898190
486 1 28.680796477635 17.383235430254 2.279837578055
487 2 17.128718593863 20.021679607738 4.640319265169
488 1 16.686716103020 20.677320418821 5.179764132537
489 1 17.839414261668 20.500923975022 4.214328250956
490 2 23.484465169781 26.488552425334 4.647344068410
491 1 24.199756872004 26.754608988768 4.069586744108
492 1 23.891752799155 26.401744489480 5.509210072632
493 2 29.311782318632 10.871595142235 10.618592040759
494 1 29.016239184522 10.008739158243 10.328134390199
495 1 29.438844619587 10.776543628127 11.562547665426
496 2 20.104063083401 1.345909460289 20.300802115356
497 1 19.827595167924 1.299483690938 19.385574285987
498 1 20.992934162651 0.990747818529 20.301304803243
499 2 10.802925112406 4.481565758739 4.780616841321
500 1 10.411946146765 3.635478616286 4.998570588254
501 1 11.488354874900 4.272829988963 4.145914344789
502 2 29.338870541831 23.150571833104 23.189522485040
503 1 28.733342195076 22.514052472600 22.809508847153
504 1 30.207707288506 22.827190199803 22.951239319728
505 2 26.172372589550 7.966004231998 19.988837620412
506 1 26.321411799861 7.043854451451 20.197784829119
507 1 26.935497284004 8.220958918341 19.470310235767
508 2 4.899286964680 26.159214446497 23.118564644969
509 1 5.409759747319 26.128554074417 23.927705745005
510 1 4.647401905962 25.249621672983 22.959106990511
511 2 4.409172990064 26.411957883912 7.635247683499
512 1 4.464677717939 27.236463591619 8.118301928012
513 1 4.539052383191 26.660753097185 6.720117023378
514 2 10.958087184887 20.269504683766 26.153593686632
515 1 11.807076172461 20.134526177589 26.574581028304
516 1 10.824812063906 19.483013229782 25.624537191598
517 2 10.887416016362 26.504212137387 29.481996708147
518 1 11.566865909029 25.833078132293 29.417507712489
519 1 10.959703524224 26.833595324807 30.377827647583
520 2 4.584111974857 4.408342914739 29.394994292277
521 1 5.473197434670 4.549356570353 29.069611388485
522 1 4.695563542024 3.846916531255 30.162204044629
523 2 16.969128368460 20.385163832267 17.248368488505
524 1 17.884575307061 20.612787207059 17.085960539643
525 1 16.481020059214 20.858123749963 16.574357335260
526 2 23.165882261620 29.642252031864 4.740074465232
527 1 23.273345755019 30.425267040982 4.200101379716
528 1 22.396898631108 29.203498459784 4.376218286239
529 2 13.764323345533 1.713808331732 16.988079581478
530 1 14.125621026839 2.226753870482 16.265180764381
531 1 14.447821060768 1.728718601655 17.658035100239
532 2 13.977975425174 29.532904765705 13.906144071063
533 1 13.624376844602 28.657836822594 14.065693369893
534 1 13.416992044327 30.115455109505 14.418164171598
535 2 26.480575315556 23.399265735039 29.346070453236
536 1 26.461309636496 23.530523211381 28.398108350347
537 1 25.807729514400 22.738628657318 29.510597105806
538 2 29.681499289237 7.925281715072 1.508953156135
539 1 29.364969952031 7.788005599580 0.616094664098
540 1 30.608791828641 8.138571741762 1.404704650721
541 2 23.120029133124 26.586175415855 10.785959981509
542 1 22.300358356985 26.351633942795 11.221117373907
543 1 23.782994346517 26.045604540105 11.215485410468
544 2 1.453730044000 4.651342653101 19.958792980355
545 1 0.931351297374 5.350127248819 19.565026077402
546 1 1.909375305557 5.073588487080 20.687028993821
547 2 4.817034094043 4.601048219655 20.246312657658
548 1 4.814863107571 5.286469790111 20.914462639003
549 1 4.662924898245 3.791210771113 20.732774889193
550 2 7.518843335546 29.634801306095 1.527918567202
551 1 7.348612148389 29.362979541853 0.626050444135
552 1 7.696512068686 30.573342105417 1.466219059330
553 2 7.646202238301 23.114406704787 26.403827517242
554 1 6.743355571555 23.049100591200 26.715010498579
555 1 7.820266088516 22.267592010262 25.992927907625
556 2 23.329775444540 23.434446836350 7.651365517141
557 1 23.065417147542 22.589469642401 7.287552278631
558 1 24.278679220384 23.462239224209 7.528723569318
559 2 14.063987484793 26.308738258593 10.899229561350
560 1 13.944488922796 25.565285522754 11.490186381477
561 1 13.181152148363 26.516173069798 10.592954508742
562 2 7.696737846883 4.688006811697 13.866331996925
563 1 8.300791213855 5.305440180487 13.453866962099
564 1 8.048258714729 4.560702765847 14.747500879364
565 2 13.731981189223 1.554218378564 10.919771848573
566 1 12.924809294912 1.204996400330 11.297593741735
567 1 13.829981526884 1.087555458242 10.089799865543
568 2 14.033438593399 26.616959571409 1.659078577231
569 1 14.119378738531 25.694564210705 1.418178328151
570 1 13.457531589245 26.612667165316 2.423633701349
571 2 29.372726994272 26.532928320640 29.687675730783
572 1 30.182577464150 27.034995550897 29.596557386080
573 1 29.590178600328 25.837235246432 30.308125394755
574 2 26.146945806351 16.864313879936 16.999461852950
575 1 25.382164148815 16.292706051726 16.931599145784
576 1 25.790824179099 17.750404627362 16.934251317524
577 2 4.736683784079 10.961490150439 1.324613406930
578 1 5.133374007645 11.547601715984 1.969083684957
579 1 4.590165527096 10.144501333042 1.801366500908
580 2 4.806329798918 11.065148629387 4.489993009260
581 1 5.492109240860 11.595993051171 4.084847853952
582 1 4.202968946797 11.702924437639 4.871345261824
583 2 4.567438548828 26.265634377560 4.687477408772
584 1 4.162617556627 26.479529733999 5.528072781569
585 1 4.430836013169 25.323452143115 4.588158607186
586 2 26.633988114789 14.165877927532 17.268619868351
587 1 27.235392828622 14.909317947218 17.311528460829
588 1 26.166341298815 14.282918086390 16.441673741493
589 2 10.744837795853 4.840298182353 7.867854714096
590 1 10.718146882068 4.404147517818 7.016213925414
591 1 10.092989761566 4.378025550747 8.394760772388
592 2 7.851147079336 23.309019566931 7.725852670086
593 1 7.700942488298 22.369129083144 7.827224753607
594 1 8.534636091200 23.372242967492 7.058711446443
595 2 4.843935513105 17.170048251276 14.115678009182
596 1 4.434254487092 16.369566034721 14.443735196123
597 1 4.152713266680 17.606828974501 13.618017235296
598 2 10.669413097780 26.139422061237 10.703883228732
599 1 9.766464727521 25.933667028755 10.461848216276
600 1 10.650909705665 26.214805080564 11.657930850645
601 2 17.199780830582 17.109003621487 1.365948240815
602 1 17.032542724971 17.893185554030 1.888750261378
603 1 18.069439206654 16.818386404289 1.640662241179
604 2 29.568067526051 20.165644958213 1.770524037533
605 1 29.504809068639 19.856173348987 0.866943642301
606 1 30.239264989439 19.610764372034 2.167806481424
607 2 20.318829769742 23.388398989769 11.019220870012
608 1 19.753097055715 22.629687705116 11.162523078015
609 1 19.884065718476 23.884321130949 10.325482237950
610 2 13.985808081705 29.296808256045 7.562542591072
611 1 13.836735449101 29.587805151436 8.462170290224
612 1 14.837245025036 29.666425701271 7.328726604201
613 2 23.042121029880 7.640575886563 20.353861857982
614 1 22.891130089024 8.583510110983 20.288221746800
615 1 22.167038996039 7.263027291303 20.442858106586
616 2 17.098743708435 26.500790008322 17.079393853518
617 1 16.709109818893 25.658820843035 16.843798444339
618 1 17.705067351884 26.693175411948 16.364137720468
619 2 10.943506780416 14.215365633889 19.930491270731
620 1 11.852063803611 14.200976425274 20.231404757098
621 1 10.775529576735 13.321696560365 19.631541298210
622 2 10.995361980143 1.386937250804 7.903995680653
623 1 10.377683862260 1.894834936274 7.377929597557
624 1 11.849571417949 1.773111601511 7.710533934513
625 2 13.850707577668 4.580202327211 7.873025891913
626 1 14.074028914745 5.471559048612 8.141060620296
627 1 12.976855552548 4.656626314284 7.489915134569
628 2 26.347752762180 7.548683715095 7.560951676588
629 1 26.921661210221 8.196708996789 7.969515218221
630 1 26.597913442287 6.717836731361 7.965111006245
631 2 13.805699666193 10.677259154004 16.942681373141
632 1 13.956375245442 11.574259344430 17.240874881108
633 1 14.522789718310 10.172954756045 17.326986943430
634 2 10.951605560325 23.353301228263 26.455453053983
635 1 11.866140587277 23.350790289088 26.738032635099
636 1 10.686464724166 22.434300303999 26.492459515631
637 2 26.154261899340 29.499820579173 17.191658796531
638 1 26.086421454193 29.210205358370 18.101467863248
639 1 27.095482950510 29.540555257870 17.022320499665
640 2 29.563202948481 13.809420042034 29.605605676226
641 1 28.776852237352 13.966659878227 30.128252816294
642 1 29.582895817578 14.532129481141 28.978281918082
643 2 4.770880121901 20.152703981936 20.117751298326
644 1 3.923188866391 19.736003167739 19.962793862940
645 1 5.393593100130 19.621902761426 19.621051740193
646 2 14.150355560465 20.173907832441 4.701195119903
647 1 14.778999285301 20.851858133851 4.949030339438
648 1 13.930731866421 20.371551966518 3.790736955417
649 2 1.662825244732 7.714517418450 7.727217313893
650 1 0.809913447981 7.281109941677 7.696700662040
651 1 1.916131442561 7.681101315680 8.649687462037
652 2 4.434078699657 19.980650721105 7.588216519095
653 1 4.321938429227 20.602039891190 6.868819619569
654 1 3.544834580760 19.698619734738 7.802541645329
655 2 29.513369395895 26.348911503916 26.493289178450
656 1 30.141400491599 25.788954280869 26.949640678048
657 1 29.615557181054 26.120743559817 25.569314673472
658 2 16.845676968930 1.731822183287 10.670739241830
659 1 16.062096732134 1.551831309961 11.190197746451
660 1 17.420734885150 2.215615642403 11.263600205217
661 2 29.389240810340 23.327788527508 10.892333995348
662 1 28.618219664349 23.284302674765 11.457902039925
663 1 29.038739697398 23.267184407697 10.003678859489
664 2 29.688073934459 29.732914349121 20.209261895522
665 1 30.579929016620 29.763770955172 19.863033326096
666 1 29.291779515969 28.972353424297 19.784138791580
667 2 16.954568134730 11.039154699922 1.527218301116
668 1 16.842329016175 10.726007113727 2.424755380866
669 1 16.846607589837 11.988243906770 1.588911397892
670 2 16.936648887637 23.377987809673 26.301761530941
671 1 17.804445037332 23.236838149662 26.680230097737
672 1 16.438231163150 23.806657094556 26.997501608927
673 2 1.612739131858 4.632949382697 23.500657292718
674 1 1.279986378995 4.882588982592 22.638574051015
675 1 1.805764792446 3.698712163881 23.422084057235
676 2 4.815207354923 29.616483464766 7.563434439932
677 1 5.136032834600 29.680519725561 8.462991113462
678 1 5.195298291860 28.803564821757 7.230378889748
679 2 1.665599034326 23.250683206887 23.334618368764
680 1 2.286787861831 23.712673954052 23.897575587490
681 1 0.975769228555 22.956290420340 23.929344832190
682 2 13.914635077329 7.521288092669 29.695016003159
683 1 14.474641260651 7.557284103531 28.919561812479
684 1 13.082416272611 7.896901056079 29.407685874575
685 2 14.102848030226 26.367462691240 20.404227341720
686 1 13.645377490853 26.692642739019 19.628849703319
687 1 14.894283359390 26.903138891383 20.458199263609
688 2 14.000210311956 4.646922239164 29.733753681266
689 1 13.721308133846 5.495381578671 30.078082251455
690 1 14.172742764428 4.117049395832 30.512020449632
691 2 8.003505458080 7.737984815927 10.942156066370
692 1 8.523351409707 6.985658655561 11.224994138429
693 1 8.316109724053 7.926681465559 10.057337448057
694 2 7.889557855567 17.252821577031 1.519183421103
695 1 8.480873785162 17.834516046674 1.041471315966
696 1 8.469129869711 16.693456850913 2.036328684637
697 2 23.346729829094 16.919017903609 7.777350362116
698 1 23.313874530641 16.646522516517 6.860345109471
699 1 24.277384358617 16.899377872843 8.000348693654
700 2 13.812329376167 10.870339316809 23.340115103441
701 1 13.345057594116 11.478570295746 22.767451154899
702 1 13.125627860052 10.460016050546 23.865764877463
703 2 4.622214226672 7.824049478463 26.270129310488
704 1 5.112749096920 7.662564057592 27.076063451667
705 1 5.293927233927 8.003284089086 25.612171538106
706 2 29.718718812950 1.783123450254 26.394523000009
707 1 29.839955195316 0.892268921448 26.066023703061
708 1 28.841019032809 1.780702736652 26.776451103304
709 2 16.986988773314 1.764660527786 1.324588020894
710 1 16.642269170941 1.728990609912 0.432328029244
711 1 17.411091199764 0.916070237308 1.452116412969
712 2 13.751392157308 29.563654857984 29.660223395022
713 1 12.876358050991 29.942297681629 29.575507606153
714 1 13.895231547646 29.104274249279 28.832871277642
715 2 20.334027004403 29.491962355074 4.890214205895
716 1 20.173467648052 28.551332322696 4.965498170174
717 1 20.651065192973 29.751302594971 5.755350765612
718 2 17.011966353311 1.351436661914 23.185544624647
719 1 16.723200304674 1.488034332461 22.283221464379
720 1 16.916397805917 0.409757037854 23.328155908843
721 2 13.825485716446 29.329857284321 10.882870055472
722 1 14.637908519877 29.833466209187 10.933654691535
723 1 13.900212695018 28.835478581423 10.066636377660
724 2 20.050380851327 13.876252061840 10.881553388931
725 1 20.692952634905 14.396197401531 10.398862818603
726 1 19.218149500709 14.325287027401 10.733261721088
727 2 1.589209331231 7.863924059461 20.276134400320
728 1 1.671864991810 7.146791259714 20.904720455925
729 1 1.296804507951 7.442271960301 19.468086897634
730 2 1.526136795397 23.222838714692 29.329623293566
731 1 0.637475677065 23.516146213349 29.128417011368
732 1 1.404615345890 22.438248127456 29.864302625251
733 2 23.496211801456 23.099489623468 23.509607974014
734 1 24.118462471084 22.451492102718 23.839964080736
735 1 23.806375888445 23.932675131647 23.864336022106
736 2 23.154040636967 14.193022683613 23.045939867161
737 1 22.508393506723 13.925691858354 22.391794735654
738 1 23.975202659972 14.261060383678 22.558809860548
739 2 29.671878013026 29.299477735828 16.911691797459
740 1 28.826469884684 29.263467435471 16.464232084411
741 1 29.467005736025 29.110289175309 17.827370168223
742 2 1.367124091784 20.317448332219 4.830037391160
743 1 1.632229778192 21.122941615179 5.274032195341
744 1 1.073373263380 19.740376670709 5.534970429323
745 2 10.941540235641 29.475462858204 26.482159073963
746 1 11.880798946301 29.417356719007 26.657226463952
747 1 10.574729408117 29.875313474779 27.270702757748
748 2 23.175200290012 4.428948876409 29.343360979767
749 1 23.694502154256 4.552342954952 28.548797379308
750 1 23.243820052838 3.493027248245 29.531971356162
751 2 20.069032645282 1.512747447941 13.928832850355
752 1 20.397952391029 0.636291146542 13.729163141597
753 1 20.149370738726 1.992765590112 13.104599743807
754 2 1.546615075397 7.604254265374 29.326284223020
755 1 1.553615839652 7.304426636217 28.417281350585
756 1 2.468838224990 7.747723252835 29.538776462857
757 2 4.865671223133 13.771216899764 17.282790269731
758 1 5.041934638292 13.603301863977 18.208515709174
759 1 4.190780594377 14.449996966609 17.286268785361
760 2 29.634201603112 7.781203188816 13.803935499485
761 1 30.427761088414 8.034173471828 13.332235150534
762 1 29.866886953223 6.963568318255 14.243892981847
763 2 26.341906491200 13.902046699385 4.454878356618
764 1 26.238585736108 14.853064851632 4.488361720591
765 1 25.604099973424 13.598973495517 3.925709181944
766 2 4.456022993057 1.731687011805 23.125171736035
767 1 5.360154141839 1.598610973480 22.840444719710
768 1 4.471765278930 2.567593656119 23.591266256950
769 2 29.419911960076 1.493224809313 23.219649900788
770 1 29.028452489026 0.969181858048 22.520814936183
771 1 28.677953441662 1.766145649049 23.759319811187
772 2 1.319071496767 16.983437266773 20.197864629225
773 1 1.015100860892 17.774249873105 19.752388351301
774 1 0.789010341109 16.279081173231 19.824837143975
775 2 19.993605196147 4.810462164967 1.590225040631
776 1 20.167552679516 5.748502596634 1.668034176262
777 1 19.072501562343 4.757527442665 1.335278279586
778 2 29.376859448454 11.086986452978 1.788982309559
779 1 29.024173919256 11.385735142951 2.627191100812
780 1 30.301363588176 11.333545872273 1.816044984869
781 2 4.605809701197 26.306110350169 26.561399438774
782 1 4.101807708371 25.778561568978 25.941797861394
783 1 4.135636591132 26.217082451387 27.390400717308
784 2 13.790401740798 29.377271973225 26.315868227502
785 1 13.648475062379 29.178518267012 25.390349117910
786 1 14.460538805842 30.060753035152 26.314529556037
787 2 14.111810030687 17.185377245649 4.467189666260
788 1 13.559753054930 16.561217916824 4.938241752297
789 1 15.007190398770 16.919009114373 4.675933181349
790 2 4.726819507184 7.991654882131 1.554956299287
791 1 3.990067154239 7.518040295625 1.168799551476
792 1 4.559202474461 8.909991077804 1.343308001259
793 2 4.854557850348 20.308122485663 26.295792320332
794 1 4.380605190540 19.496009849518 26.474883868080
795 1 5.359065373928 20.472249110537 27.092514636863
796 2 4.720178949300 1.479347553923 4.680191253570
797 1 4.509885502920 2.373183751924 4.409885209330
798 1 4.381405385806 1.412623432005 5.572946653572
799 2 7.754854207854 29.414245412171 29.589767677499
800 1 6.798266989538 29.397341898636 29.559985048598
801 1 7.995869537905 28.596825250969 30.025620554902
802 2 20.394441436855 7.797670476189 23.254079259278
803 1 20.226913113464 7.421849768936 22.389831090717
804 1 20.871166758206 7.113991266669 23.724767634377
805 2 29.671793606159 23.390956557942 20.382346848169
806 1 29.311113189258 23.197326042743 19.517101969278
807 1 30.582609778953 23.100747704774 20.333107017550
808 2 19.947060172294 7.577476437765 20.310583969489
809 1 20.194909012056 7.954351480552 19.466328087216
810 1 19.005870316876 7.738201689776 20.378118326849
811 2 1.593888298078 11.081993335156 1.746122835273
812 1 1.041539735383 10.521696244987 2.291292603361
813 1 2.268576452040 10.494928061013 1.404974628771
814 2 13.786347399384 4.748862267579 1.625673185938
815 1 13.759866890891 4.469905771904 0.710406068540
816 1 14.230073688218 5.596758248611 1.605394479227
817 2 26.477590233435 29.604181748191 26.604633079432
818 1 25.744077492552 30.060275758251 27.017148719075
819 1 26.194164596464 28.691361628963 26.553046470312
820 2 7.680539351896 26.552770879413 1.665235260481
821 1 6.727560971157 26.499747776307 1.592760462244
822 1 7.924214675797 25.789586259712 2.189070552127
823 2 7.874458738066 17.143790591988 4.867093123632
824 1 7.693555020308 17.919652159091 4.336485440316
825 1 7.682368104272 17.416509872267 5.764287206633
826 2 1.787319196747 10.902192828285 4.872657711386
827 1 1.833884192930 10.606602227479 5.781882511886
828 1 1.326548788996 11.740073339932 4.916001909881
829 2 26.404409102174 29.282198525867 7.886962882231
830 1 25.808515664808 28.628022210736 8.251923428081
831 1 26.370473060314 29.136785977810 6.941481324541
832 2 26.365901560091 1.463661768265 4.645220117078
833 1 26.165275767286 2.059554842521 5.366948996448
834 1 25.523214267084 1.071516137297 4.416458734153
835 2 10.823602134034 10.895677670221 20.422827845128
836 1 11.757055452465 10.762546348081 20.587669567319
837 1 10.629016046488 11.745671184898 20.817643143136
838 2 1.743282013399 13.881584691875 23.043060322736
839 1 0.980249502300 13.436958005415 22.673844482484
840 1 1.375325794211 14.577615126990 23.587469813978
841 2 13.936299852807 26.631293536301 17.185309218068
842 1 13.794081924832 26.444990970234 16.257248199148
843 1 13.055615463011 26.706713794340 17.552649156337
844 2 20.003100636357 7.914381077838 26.216696707236
845 1 19.807745827940 7.811752424655 27.148112671440
846 1 19.145359141134 7.933354649963 25.792254283658
847 2 7.636194376910 29.572754157593 26.407590941690
848 1 7.227099686799 29.019463568619 27.072980225250
849 1 8.203068162905 28.978093713640 25.916403699236
850 2 20.279086634079 20.240854587368 4.491633311716
851 1 20.387921491047 19.305614622580 4.319258655307
852 1 19.952863001925 20.600548379461 3.666751285149
853 2 13.853243771753 16.890720651861 10.919988404542
854 1 14.072211360739 17.033327723598 11.840829464695
855 1 12.904094397224 16.766921533853 10.915396758664
856 2 29.255460076964 1.380230295685 10.972577018747
857 1 28.565367046822 1.601796020917 11.597806639888
858 1 30.069196117336 1.489201689827 11.464705794433
859 2 14.117840294413 23.521390490955 13.998174023855
860 1 13.209098105562 23.771309327549 14.165386611052
861 1 14.379577643327 23.032104678134 14.778125813106
862 2 1.386834767364 4.425023643452 1.322426788488
863 1 2.084136130895 3.816392608581 1.566498318593
864 1 1.784976924553 4.994645497906 0.664212837255
865 2 4.484921597656 23.435674142271 29.334228217808
866 1 4.132684681231 23.712691003715 28.488401608400
867 1 4.373106909941 24.198088514810 29.902078233354
868 2 16.970861421012 10.742688663536 10.710579872964
869 1 17.589313706445 10.520127848091 11.406435672732
870 1 17.522358017522 10.941641937972 9.953941955179
871 2 13.747446790025 20.248665681478 26.260766428821
872 1 14.465442900634 20.369005774304 25.639291017232
873 1 13.641391045403 21.105626085624 26.673807449494
874 2 26.587970118768 26.457894512337 13.879132862629
875 1 26.916801047848 27.211002669118 14.369979238057
876 1 26.615622569500 25.733441362795 14.504140715449
877 2 10.941913559378 7.512373906281 23.251014990871
878 1 10.511107894757 6.737565824948 23.612000802826
879 1 11.876979679678 7.316368674637 23.309880429252
880 2 29.344728778086 13.820110583757 14.039261359486
881 1 29.918507150218 14.262462711618 13.413693765496
882 1 29.650346895832 14.116689579834 14.896507126575
883 2 26.602912488229 10.678718384361 13.892047179342
884 1 25.755851044790 10.477033031889 13.494502503065
885 1 26.403081553849 11.328251376744 14.566143855993
886 2 14.147893615462 4.501288941211 14.018788831834
887 1 13.388724656715 4.394426070790 13.445661743834
888 1 13.999141487252 5.337202005941 14.460777511062
889 2 1.398729739735 23.321192935562 20.175800912069
890 1 1.126710733139 23.661231387508 19.323385900910
891 1 2.228886890465 22.877033835731 20.003192571801
892 2 7.929654193606 20.279593235028 4.547801076146
893 1 8.222950766729 20.204414292233 5.455852333926
894 1 8.251485001091 19.483438784495 4.124959661135
895 2 1.458631899172 13.826985086047 13.795026175691
896 1 1.351068193580 14.129271791174 12.893203223476
897 1 1.388721216832 12.874007322908 13.738654911230
898 2 7.884647008961 1.575836092118 1.612417562242
899 1 7.913705268967 2.351240353925 1.051939473200
900 1 8.408589271043 1.813017732506 2.377571935861
901 2 1.379213909182 23.148274783072 1.356302810141
902 1 0.649274141245 22.581664901997 1.606048716718
903 1 1.924822962488 23.196806491469 2.141278780621
904 2 29.320101778417 29.609753513257 7.866311199679
905 1 29.602242282114 30.449730781919 7.504279758633
906 1 29.992728399783 28.989312972997 7.585493101560
907 2 7.873782993984 1.562199037685 26.586143945140
908 1 6.978355222381 1.263379862255 26.744725300408
909 1 7.803258233228 2.515459110227 26.535613437350
910 2 29.248489433759 1.578033367372 19.960141406999
911 1 30.048394561056 1.112535492397 20.204467737382
912 1 29.548752728488 2.292852043108 19.398796544496
913 2 10.921623070151 1.314783156938 16.963636986821
914 1 11.823762468345 1.016043899954 16.849045527441
915 1 10.759020691958 1.881851693339 16.209829596549
916 2 10.724966525463 4.826611128990 13.944116298078
917 1 10.011104468312 4.808072564549 14.581524428704
918 1 11.494741559368 4.543495192355 14.437597405721
919 2 23.517128446964 26.579131627363 1.641323201842
920 1 23.724291380305 27.244493949324 0.985115658785
921 1 24.269348016884 26.583459926740 2.233251258664
922 2 11.075445465165 10.960304740917 29.693558770862
923 1 10.300627799477 11.512565954838 29.589170186544
924 1 10.809244603448 10.289786058971 30.322664197944
925 2 20.234961583220 26.388228107007 26.433176631245
926 1 19.572479936328 26.848909694203 26.948076993208
927 1 20.055230789085 26.642720198569 25.528100691352
928 2 26.185969471304 17.057605087079 13.918298030234
929 1 25.521881939820 16.390738331636 14.092964343565
930 1 26.088114376960 17.255575425679 12.986920574234
931 2 7.983370034234 7.531152149710 29.501462559238
932 1 8.108279276512 8.098370044721 28.740612126648
933 1 8.505146010896 6.752246090279 29.308364084984
934 2 1.582018406120 4.462677447084 14.213390530971
935 1 1.063124705133 4.499454113592 15.016900732448
936 1 2.418862533190 4.085770484997 14.485171488579
937 2 20.400191259649 10.785572697885 23.461949723795
938 1 20.142259001889 10.279151822022 22.691728530308
939 1 20.992942982695 11.455486673709 23.121226229122
940 2 13.832216831855 14.070001426231 26.626151950463
941 1 13.828991184432 14.739683152402 25.942231033374
942 1 14.219354446059 13.301218154217 26.207429383195
943 2 10.715187359250 23.063345296457 1.432063770095
944 1 11.277010810397 23.837772868235 1.461187399882
945 1 9.834795554179 23.399075384045 1.600668093442
946 2 4.867750871555 13.945202762038 10.991324815825
947 1 4.240294849890 14.576402167283 10.639020839555
948 1 5.024068242912 13.334581228704 10.270951258259
949 2 23.458811473509 7.514411048449 17.258094339258
950 1 22.941310523114 7.156391915105 16.536812905628
951 1 22.845831932562 7.564376214215 17.991573312775
952 2 17.060816207988 1.559594862135 17.101993211989
953 1 16.723460657967 0.688093704861 16.894848804050
954 1 16.934829987001 1.647382767476 18.046796152182
955 2 26.339247964910 17.023273894115 7.662512771152
956 1 26.460909871164 17.951709313167 7.463923010050
957 1 25.556643954276 16.773333984595 7.171297091263
958 2 13.750566178658 26.212180191875 23.279695676635
959 1 14.294729857625 25.652121320569 22.726114796218
960 1 14.291476739603 26.386600152297 24.049906870052
961 2 20.231828485290 10.715407541924 20.349613013442
962 1 20.913355233095 10.490041062246 20.982829470796
963 1 19.572633718142 10.028961323261 20.452012661135
964 2 17.097100176027 13.995538422901 29.320888493881
965 1 17.941497528698 14.252904179343 29.691007148116
966 1 16.616242938126 13.619974830455 30.058425031815
967 2 7.897162046958 4.416773566331 20.294268804593
968 1 7.040290946094 4.731949715973 20.581788805984
969 1 7.902698572844 3.488823041252 20.529021887399
970 2 16.848881000426 7.731583043320 4.470388173861
971 1 17.063985928763 7.890314897953 5.389499651393
972 1 17.415573978662 7.004209298319 4.213447823775
973 2 13.772257933905 14.026350020609 19.978823438299
974 1 13.295575063028 13.994319816280 19.149378234187
975 1 13.446682402753 13.273325068306 20.471962196382
976 2 17.120446825208 29.457618416460 7.653357409191
977 1 16.406575201966 29.488556428670 8.290273404382
978 1 17.831577540276 29.947831457720 8.065929972828
979 2 29.411091084840 1.492929502348 29.432692211502
980 1 28.554443875095 1.881203001528 29.610543519820
981 1 29.320500479316 0.578558359342 29.700928292278
982 2 26.449489511385 23.237620793052 23.206435553362
983 1 26.715719334866 23.375972610610 24.115397761415
984 1 26.369050567753 22.287562000021 23.121879618427
985 2 7.701975564897 26.348423150499 26.395412414871
986 1 7.012654714308 26.778137231626 25.889038626623
987 1 7.329691920801 25.500002261156 26.635867655745
988 2 20.340467019897 1.413130148764 29.708057937966
989 1 20.202211588567 2.241861012576 29.249448702261
990 1 20.971564725294 1.622298184346 30.396677033790
991 2 26.570749219255 7.878462822950 4.425169850304
992 1 27.034849635310 7.794979353443 5.258160338928
993 1 26.427707571189 6.976410084545 4.138688116061
994 2 23.262952363446 20.144496374687 29.370768167689
995 1 22.955193325897 20.955400490810 29.775676465037
996 1 23.509852836439 20.398888079638 28.481635524666
997 2 7.544068468813 11.092695049661 1.556563359382
998 1 7.012008329809 10.991686017776 0.767297229385
999 1 7.007305875301 11.628066025215 2.140939673703
1000 2 29.252451623505 23.147900287374 13.996831450944
1001 1 29.486334150493 23.994474849162 13.616249902649
1002 1 28.758813621278 22.703171040292 13.307796430392
1003 2 20.207462234438 4.508657944871 4.884819220005
1004 1 20.262770887651 5.109317541401 4.141595941322
1005 1 20.264507257825 5.074050463633 5.655084761903
1006 2 20.024487568972 20.389696044184 26.143410227605
1007 1 20.234970616760 20.765959914693 25.288802582926
1008 1 19.219915216833 20.834532294539 26.409898277137
1009 2 4.644370541587 23.345072361167 4.509720768561
1010 1 4.948351121156 22.509396671573 4.155497972759
1011 1 4.186951878473 23.762868358705 3.780031443522
1012 2 29.462061197275 20.291973846728 23.071023313070
1013 1 29.049848187827 21.155766308318 23.057799919295
1014 1 29.690186089445 20.148961103508 23.989575559188
1015 2 7.655629817788 7.549168744056 26.514767571497
1016 1 8.302589905381 7.827150192703 27.163150790952
1017 1 6.894960518364 7.285473904481 27.032531116463
1018 2 10.937402785858 17.042408581138 16.976392857951
1019 1 11.023949455351 16.383951225576 17.665722550411
1020 1 11.571796063425 17.719848430109 17.210598452256
1021 2 10.624595812632 14.139446571306 7.549190128807
1022 1 10.527728372780 15.014683563992 7.173945214476
1023 1 9.745465673380 13.762855537851 7.509931603893
1024 2 1.559397104274 10.672685591853 19.947960133679
1025 1 1.513778823084 11.506343582026 20.416110929730
1026 1 1.205413464166 10.865326839965 19.079733911971
1027 2 4.731472972045 1.694877349803 29.730420509903
1028 1 3.909017045825 1.760132337999 30.215745015715
1029 1 4.519704797681 2.018257141361 28.854742720566
1030 2 29.406412891003 29.449890967812 1.768809906517
1031 1 29.513355086677 30.113699852148 2.450097637113
1032 1 28.664441035672 29.757647824574 1.248237795265
1033 2 26.346369857770 26.477553293929 29.356759008343
1034 1 25.486918548420 26.893749843984 29.290761140344
1035 1 26.402777912198 25.919140078564 28.581372232405
1036 2 7.922530229606 26.387655925633 13.745839500230
1037 1 8.512474208005 26.052766496100 13.070526970850
1038 1 8.307436030379 27.224098527575 14.007455895334
1039 2 4.796763860369 7.981575145171 17.233362600822
1040 1 4.094922805003 7.597963015585 17.759188339102
1041 1 4.805712401031 8.905705307844 17.482631945225
1042 2 10.830416761826 1.666780818826 1.648680546477
1043 1 10.435725992761 2.031392847987 2.440835269373
1044 1 10.553122144056 2.257678556405 0.948552416290
1045 2 1.645371491074 26.257928990012 13.734800263375
1046 1 0.775768978368 26.070799955132 13.381238339235
1047 1 2.241968288951 26.092308321772 13.004818143721
1048 2 14.194432089205 13.746531495236 23.470429690580
1049 1 13.422509517580 13.599623809723 22.923816925131
1050 1 14.402537219461 14.672761443691 23.347864698249
1051 2 10.992923979129 23.234258459339 7.742835046863
1052 1 10.184777393920 23.440336193866 7.273087344211
1053 1 10.698962432111 22.869579340880 8.577597042545
1054 2 23.506211114954 1.616770553382 7.781050146287
1055 1 24.252095524314 1.040861794473 7.613069822185
1056 1 23.743374527134 2.444672310682 7.363241534381
1057 2 23.502559825234 26.380988854533 23.308605414306
1058 1 23.541191374973 26.908420607181 24.106449502874
1059 1 23.543071675332 25.475780140750 23.617130639356
1060 2 1.686666042736 26.448840665260 23.437603356421
1061 1 2.220022398389 27.243548879734 23.451805177859
1062 1 1.197645262944 26.502656149319 22.616509932621
1063 2 23.247258853011 10.730642998791 11.003669822876
1064 1 22.939266128718 9.882993697387 10.682947226833
1065 1 23.825812975236 10.514708649161 11.735024267934
1066 2 26.385108121710 13.878855220862 10.741593984166
1067 1 26.391324282129 14.112656176734 11.669780556134
1068 1 25.476489316758 14.005268665948 10.468348035998
1069 2 26.323673025921 10.927040729976 7.817063902301
1070 1 26.447749394767 10.552963462807 8.689361496521
1071 1 27.186816808642 10.871325822605 7.407051098299
1072 2 7.570120806074 23.308995378210 4.862810402145
1073 1 8.117786065657 23.968256956218 4.436584200219
1074 1 8.192176202225 22.678759795032 5.226241322425
1075 2 26.246520405794 10.817150322405 10.934297196120
1076 1 25.409922949763 11.099812446910 10.564921154759
1077 1 26.569406821124 10.157675289831 10.320237847028
1078 2 1.315621939375 10.778850883560 26.396427507224
1079 1 2.059482475732 10.276322011886 26.064210596780
1080 1 0.663456662958 10.117556521861 26.627948692908
1081 2 7.901015848841 7.616577012068 1.655058321615
1082 1 8.203788805732 8.313045576622 1.072398974170
1083 1 7.879876210016 8.021375145945 2.522193505124
1084 2 26.346240611021 23.433557235119 4.535164360949
1085 1 26.244854987147 22.565710464527 4.144274634754
1086 1 27.276324829161 23.635509368782 4.433230446687
1087 2 4.519954200825 4.816221133065 7.835295103135
1088 1 5.274158825498 5.244099840814 7.429922391207
1089 1 4.818884318519 3.925414050466 8.017874856468
1090 2 20.095045048548 17.096331894353 26.270475124897
1091 1 19.213620413902 17.460467711699 26.188453420662
1092 1 20.677328532486 17.834216781156 26.089633541843
1093 2 1.518759404846 10.860896575028 17.266847025862
1094 1 1.238637073732 11.746125236535 17.034180877792
1095 1 1.097106513429 10.297441021172 16.618033864784
1096 2 20.417603029305 19.942631667081 19.947838375292
1097 1 19.463726604170 19.867844991946 19.975380321379
1098 1 20.678790662444 20.020803391474 20.865390576423
1099 2 10.850341726354 17.127307303665 20.322004222001
1100 1 11.549923788716 16.547822339487 20.020319031259
1101 1 11.115589104041 17.384183017506 21.205118334825
1102 2 29.543892518516 26.515200726640 20.078758942174
1103 1 29.268100629380 26.114859681325 19.254199834939
1104 1 29.164423436952 27.393718230738 20.057733930135
1105 2 13.831475549455 7.922171689788 13.839406455321
1106 1 14.505224408777 8.540390668922 13.556387713186
1107 1 13.297683948286 8.416941720790 14.461098487556
1108 2 17.151826461784 26.545929954484 23.213000690234
1109 1 16.807298568366 26.387162846509 24.091821136105
1110 1 17.912217920289 25.968465845740 23.145385063741
1111 2 17.009294435442 7.997164627874 23.242214063783
1112 1 17.043984702462 8.674886791940 22.567142887011
1113 1 17.926586762981 7.808601568552 23.440331701808
1114 2 26.299866561700 10.983397066286 1.618602649100
1115 1 25.613672077904 11.638062069101 1.489054571168
1116 1 25.844680418944 10.143502112205 1.558487080783
1117 2 23.402838497293 1.348678585280 23.320361490186
1118 1 22.572613899472 0.885540981739 23.431997135744
1119 1 23.995633352320 0.693344542888 22.952443846227
1120 2 20.165739874051 23.492776964515 17.165284234294
1121 1 20.032990007395 24.362908624119 16.789145685540
1122 1 21.092996884711 23.472552223171 17.401963840553
1123 2 20.165846517912 13.940084766245 26.485213884462
1124 1 19.873501169922 13.839469603376 25.579320609010
1125 1 20.749265903803 13.195800218442 26.633180678263
1126 2 20.025996338099 14.043572195034 14.117830423916
1127 1 19.273211674997 13.821032582652 13.570086677334
1128 1 20.709610781357 14.293461978962 13.496172777893
1129 2 14.088533616044 11.100539481197 26.158226529620
1130 1 14.896621881815 10.630680323512 26.364278869243
1131 1 13.922446708179 10.899869331537 25.237151901768
1132 2 23.509430424273 29.688855962471 17.143443507085
1133 1 23.964543479011 29.957214305741 17.941621273628
1134 1 23.241115035653 30.510589334863 16.732355977565
1135 2 14.073079197235 4.408181856870 10.744557888059
1136 1 13.961077017778 5.358805829817 10.743368831417
1137 1 13.202385551227 4.063701237383 10.545918723745
1138 2 20.246432340498 10.775301629701 17.241531406194
1139 1 20.677114013222 10.949539973396 16.404640650858
1140 1 20.309073451928 11.601778727749 17.720325242370
1141 2 23.324329121592 16.927861472190 4.814820236750
1142 1 23.078289522716 17.844107916013 4.942055491166
1143 1 23.427612278509 16.581784482089 5.701271107594
1144 2 26.281344645107 17.083121135902 4.788642140650
1145 1 26.824441574765 17.237715757435 4.015739774249
1146 1 26.584314079163 16.241943026384 5.130491157172
1147 2 23.434368013059 7.525156422192 29.634626895252
1148 1 22.864388493349 7.809912376291 28.920295575964
1149 1 24.295137065128 7.878701218638 29.410317831887
1150 2 26.534498202365 20.306374509420 20.208105642862
1151 1 25.943526980912 19.781395769260 19.668307367768
1152 1 26.640194843873 19.798084437643 21.012283025599
1153 2 26.297215748710 1.703213579788 13.899292583291
1154 1 26.842700446100 1.439509864241 13.158253694081
1155 1 26.894264557033 1.706920034746 14.647457553515
1156 2 1.321189965306 1.355573369293 16.873628954152
1157 1 1.617174018194 0.518458727667 16.516047694561
1158 1 1.066806808314 1.155268065141 17.774405749239
1159 2 16.959119282361 17.205280916243 7.538678192690
1160 1 17.309571466016 17.859534066008 6.934221475469
1161 1 16.511734794171 16.573595003084 6.975604603499
1162 2 29.666105660708 20.025990322427 10.923664365841
1163 1 30.360751869130 20.031485019888 11.582199325751
1164 1 30.077609966088 19.653398030156 10.143875272307
1165 2 7.657837228423 26.524424267064 7.996802819041
1166 1 6.917533827861 27.080917672596 8.238666013258
1167 1 7.287691216640 25.643448701641 7.941072907068
1168 2 10.998791960841 16.899787178429 13.912545013484
1169 1 11.560278337654 16.887937068497 13.137416338006
1170 1 10.441805885116 17.669116649906 13.793673167517
1171 2 4.501005141173 13.823699898902 23.394083163137
1172 1 4.403562692564 13.689079234985 24.336746457244
1173 1 5.243412824520 14.422389251363 23.312635443969
1174 2 17.290801013042 26.466660608385 13.892125694093
1175 1 17.667156089202 25.962740204276 14.613688527789
1176 1 16.649536466750 25.876571712081 13.496137416326
1177 2 20.266603149348 29.668669498534 1.540092584986
1178 1 21.122154557534 29.394827384326 1.870658954172
1179 1 20.239028930847 30.612309092066 1.698256487292
1180 2 4.804323244079 1.637569501496 26.209203996994
1181 1 4.237676168063 2.406825151256 26.150991656754
1182 1 5.291654938961 1.635581663396 25.385349818354
1183 2 20.401594393793 20.005194706912 8.000523069709
1184 1 21.231510181360 20.077976714223 7.529169269514
1185 1 20.207026862447 20.898742547405 8.283273087384
1186 2 4.526201358928 26.372593640436 29.701184329305
1187 1 4.124602651253 25.658211716710 30.195763731471
1188 1 4.883149613701 26.956694263582 30.370248037374
1189 2 23.309620050737 4.751336204195 23.457210724109
1190 1 23.572823203044 4.161860554418 22.750475696722
1191 1 23.802609613483 5.555626039238 23.295004089627
1192 2 26.368080610453 20.191645616044 29.479936220416
1193 1 26.778650137485 19.485723631395 29.979274437522
1194 1 26.315956269652 19.854203016374 28.585706168906
1195 2 1.452720092985 4.812374818034 11.078997918460
1196 1 1.399305209835 5.758882945913 11.211289468142
1197 1 0.570453608580 4.493346494486 11.268888990575
1198 2 17.053782954245 7.516004419962 17.050471659266
1199 1 16.098994243074 7.509477499599 16.982886480934
1200 1 17.283102087549 6.619781523660 17.296294960125
1201 2 19.977118570987 13.786240755183 7.667966437837
1202 1 20.408825660718 14.638089301779 7.732888563027
1203 1 19.888523497810 13.633167548392 6.727247911193
1204 2 17.108197722362 17.016642879984 20.064052184692
1205 1 17.801570566686 17.333044166277 19.484952741775
1206 1 17.573115680949 16.626882070558 20.804436978714
1207 2 13.736921868015 14.165447886313 29.316991531674
1208 1 14.295304274642 14.095240540192 30.091273041540
1209 1 12.856266243498 14.298925075567 29.667507367200
1210 2 13.888282503311 17.284522658908 17.190287356605
1211 1 14.530714859613 16.622213838171 16.935612007285
1212 1 14.055227277860 17.435553874450 18.120637212402
1213 2 10.618772327475 29.479599447009 23.152810137115
1214 1 10.332199151754 28.698657296948 23.626346844472
1215 1 10.975474438248 29.144137537421 22.330337796312
1216 2 29.365330337952 7.606050282616 20.133276882794
1217 1 29.787467059026 7.111298221145 20.835596486956
1218 1 29.568081912738 7.113966056075 19.337678521238
1219 2 13.854217087997 14.116580777328 17.268311222444
1220 1 14.544092665773 14.096692220681 17.931566808552
1221 1 13.098501864739 14.493057625457 17.719300716956
1222 2 26.340616876346 10.763952989848 20.152654575301
1223 1 26.240547579023 9.826413908474 20.317695317634
1224 1 26.124063095159 10.868999124764 19.226208889147
1225 2 29.518339544999 1.371911932408 13.859085114021
1226 1 30.297868286323 1.793457781345 13.497331221582
1227 1 28.792081501337 1.928078102221 13.577198105503
1228 2 23.172693415619 14.060489824048 26.357458110366
1229 1 22.630251517437 14.473373857019 27.029407068557
1230 1 23.109503431825 14.647400932132 25.603950169363
1231 2 20.276729749549 14.011755184395 29.633061306417
1232 1 20.996258845397 13.781850174603 30.220984266251
1233 1 20.363300798859 13.403930841470 28.898699773131
1234 2 10.827994382794 11.074216403162 7.806743713860
1235 1 9.941892510836 11.385213588508 7.621443786124
1236 1 11.277808806229 11.114337849635 6.962771502230
1237 2 13.821045391467 14.048709601082 11.108866133523
1238 1 13.814658479678 14.891817295713 10.655698987084
1239 1 14.413178540772 13.502728995457 10.591647270976
1240 2 7.914808475136 29.336569444922 23.071711005120
1241 1 8.742230247195 28.930491451900 22.813436510237
1242 1 7.657868088410 29.861061565404 22.313343354689
1243 2 29.469960752917 26.519979500462 13.773277940275
1244 1 29.989474580996 27.314325667455 13.649377216230
1245 1 29.888881831480 25.868996386467 13.210287749215
1246 2 20.122137568241 1.670799157706 26.297530839206
1247 1 20.343205078101 1.584771090796 27.224871212417
1248 1 20.902641415508 1.365067302443 25.835390582272
1249 2 23.164107090347 29.583053651405 20.251308932356
1250 1 23.806621272527 29.020510601397 19.818928680050
1251 1 22.805222351656 29.041308313499 20.954121548344
1252 2 23.449676041963 13.757642554705 17.046874810755
1253 1 22.812021992984 13.319324519562 16.483397700404
1254 1 23.043085933514 14.597168420573 17.261613359342
1255 2 20.264349044033 1.561659830678 17.054484608684
1256 1 19.959631335575 0.696481190700 16.780906687282
1257 1 19.843852094940 1.707294071912 17.901954268071
1258 2 26.563947075545 8.001223183787 26.581910915800
1259 1 26.483344035223 8.915974135672 26.311789302604
1260 1 25.693388773401 7.630599707357 26.437002940567
1261 2 16.964923965703 23.446605340256 23.261229465130
1262 1 16.329950763809 23.028141235006 23.842545786502
1263 1 17.439623049906 22.718436132853 22.860402538831
1264 2 23.131062579897 14.163161973962 4.536967943834
1265 1 23.685185631835 14.565562416890 5.205737984163
1266 1 22.242065880522 14.241175389405 4.883133533563
1267 2 26.315869495206 4.562427637313 4.487199543194
1268 1 26.753692548292 5.163550470031 3.884543626296
1269 1 25.384633657999 4.658555789328 4.287722642551
1270 2 1.448309822279 4.446375123018 26.455711319686
1271 1 2.029349634775 4.779970643040 27.139333002574
1272 1 0.615109585028 4.891322726859 26.610730139454
1273 2 1.683506016612 16.958665256945 7.996127369849
1274 1 2.369450038873 17.395950951960 8.500601213828
1275 1 1.158400576505 16.500243401039 8.652134624991
1276 2 7.551798887708 29.556326812058 4.899700746807
1277 1 8.242654083273 30.211160279562 5.000418513845
1278 1 8.018642032957 28.741523345168 4.714269821455
1279 2 16.863125199961 7.609310899755 7.685774355211
1280 1 16.562752106054 7.745174556641 8.584411607496
1281 1 16.194725118767 8.028036428484 7.143425663823
1282 2 23.081977793376 20.207457347534 4.447985703137
1283 1 22.679787295140 20.947476128661 4.902789888154
1284 1 22.734939951773 20.255875068215 3.557226307554
1285 2 16.901244517514 29.332304584260 14.127114421574
1286 1 16.207674550200 29.952230734687 13.901539359885
1287 1 17.271243102256 29.069087112483 13.284470101686
1288 2 16.937773128111 23.112754962345 1.520477070115
1289 1 17.709626875456 23.508268106185 1.925499274149
1290 1 16.236202363158 23.249013795322 2.157237489895
1291 2 29.380476504601 16.918892692081 20.249516319694
1292 1 29.223813801055 17.215285587617 19.352945135240
1293 1 28.564335193032 16.489815239715 20.506494411019
1294 2 13.863027312338 23.300254787954 7.703552318458
1295 1 14.630459555448 23.268346561130 7.132359306162
1296 1 14.127901160853 22.820565787519 8.488391249217
1297 2 29.703935885275 13.854367945370 20.218865249525
1298 1 30.058207621597 14.740158915997 20.140777265816
1299 1 30.342559693187 13.387093951323 20.757424890098
1300 2 4.700830784063 14.025601304378 7.598605063110
1301 1 4.921379960408 13.526806994380 8.385239754137
1302 1 3.959130241248 14.571095207644 7.860422836164
1303 2 23.124259262798 7.914101644351 1.752496218788
1304 1 23.547433670364 8.224668303276 0.952056582622
1305 1 23.599020217214 7.114777622752 1.980344819086
1306 2 26.341257480646 19.986623703262 1.304697505986
1307 1 26.141294840450 19.083511576272 1.550939802532
1308 1 27.285470062302 19.989079190409 1.147572042660
1309 2 23.155815911136 4.413164576104 13.803136668533
1310 1 22.608542110091 4.443088314181 14.587883631948
1311 1 23.455332646440 3.505366174829 13.753906312894
1312 2 23.185202261823 11.101264387499 4.627982813349
1313 1 23.599726698965 10.417558541463 4.101724657015
1314 1 23.712339388773 11.883194325980 4.463836961440
1315 2 23.391298537885 1.592889837402 4.882701481365
1316 1 23.301426372840 2.545153085105 4.845965381605
1317 1 22.548265017012 1.260213899674 4.574719268987
1318 2 17.291523319039 7.612953870378 13.871583892749
1319 1 16.887293650087 8.478396027708 13.809615456784
1320 1 17.711076945015 7.605088231203 14.731900535998
1321 2 23.094358063857 13.771570255992 7.878379224042
1322 1 22.593627401152 13.632601975639 8.682237706913
1323 1 23.987274444943 13.510473947138 8.103681008079
1324 2 7.958760910061 8.003288601357 4.742558633169
1325 1 7.483576950041 8.054738939257 5.571886618269
1326 1 8.037026971415 8.912596350391 4.454000699321
1327 2 4.459986056937 4.488825604568 14.145395761123
1328 1 4.903494501702 5.319908959841 14.315197280578
1329 1 3.530020830737 4.714027518544 14.119307142908
1330 2 29.698833971999 7.770069217350 7.912152425942
1331 1 30.473323288258 8.330220876218 7.860885886479
1332 1 30.015034489274 6.900382744244 7.667418874154
1333 2 10.663980791094 20.009731821002 16.985509414241
1334 1 10.862060691508 19.301935094734 17.598714100570
1335 1 11.041003911147 19.720053847486 16.154743455258
1336 2 4.579866664353 20.015811479847 14.017539185907
1337 1 3.655362241045 20.190867310160 13.841815347007
1338 1 4.809443797625 20.622544320123 14.721386783338
1339 2 7.534686188240 20.049286329125 7.574372338355
1340 1 6.919890802936 20.739214057767 7.324856400064
1341 1 7.417488274034 19.953723944984 8.519551855507
1342 2 7.865543952534 4.450070741205 7.599778297799
1343 1 7.026709245874 4.553168546925 7.150379791617
1344 1 7.684297254852 4.698483006074 8.506240002033
1345 2 1.583325780652 4.621439784779 29.469389877544
1346 1 2.146703395285 5.368059854792 29.672849884387
1347 1 0.729284466113 5.009877273837 29.279754463777
1348 2 20.212051403601 7.854241925223 14.088556193828
1349 1 20.204449904894 7.213528970056 14.799654616200
1350 1 19.338722381150 8.245547979907 14.108750997944
1351 2 13.975031938582 17.221228487750 13.917507049336
1352 1 14.931947522117 17.217652966947 13.940563971036
1353 1 13.712986077595 16.899716611414 14.780173798501
1354 2 1.317000070267 10.898587059813 7.653025553195
1355 1 1.096549651138 9.986574413785 7.842409782191
1356 1 0.712951283149 11.408549860373 8.192742928148
1357 2 4.839969768848 29.649349788970 29.291482063258
1358 1 5.113488908310 28.738348956447 29.184259847791
1359 1 4.283182867767 29.823650913676 28.532641299519
1360 2 23.097702040109 29.320595623985 26.404106004326
1361 1 23.789034083717 28.719810854772 26.125988211724
1362 1 23.011173028067 29.167794076769 27.345060975216
1363 2 29.288565223636 20.202796784256 29.642345444861
1364 1 29.659741677141 19.635177817239 28.966868880763
1365 1 28.597296281542 19.676848996006 30.044536958609
1366 2 14.178407684008 7.867724438382 4.420257003156
1367 1 13.252766185077 7.741074438596 4.211979704801
1368 1 14.307921592247 8.814875456569 4.371646959734
1369 2 23.507365582972 4.820134087202 10.980088220944
1370 1 23.901782434415 4.892456648881 10.110929642565
1371 1 22.653349743198 4.417255281406 10.823316242403
1372 2 10.768552804813 4.675466151519 10.961322252053
1373 1 10.332530108171 3.832065812399 11.082944273022
1374 1 10.090342008266 5.246405887923 10.600365505556
1375 2 4.794131086857 10.951435630821 23.205998724277
1376 1 4.114761125539 11.613679576462 23.332968217151
1377 1 5.612129200069 11.448028310835 23.183490127274
1378 2 4.893530633773 20.150296402194 1.352540829846
1379 1 4.788133228673 20.600594992583 0.514474957439
1380 1 5.037052867810 20.853175658958 1.986255244032
1381 2 10.841603940020 4.606601919354 16.946190567247
1382 1 10.520345681764 5.362191505431 16.454144483110
1383 1 11.673348422288 4.383918305853 16.528045897909
1384 2 4.581303023229 1.566208484725 14.024397488808
1385 1 4.843628373841 1.732471195402 13.118983792499
1386 1 5.020849848426 2.249218461983 14.530883223480
1387 2 13.899473839400 17.240109562135 7.946423740639
1388 1 14.624896860700 17.367655113709 7.335092887138
1389 1 13.914212688726 18.019267025693 8.502236886671
1390 2 7.518166413153 23.119401949725 11.010391810874
1391 1 7.284049661825 22.208727275407 10.831247108740
1392 1 7.651046289022 23.507608425620 10.145596742281
1393 2 23.359929338635 26.163164617661 20.302089535693
1394 1 23.616248918580 26.538504191518 19.459680895405
1395 1 23.469331382606 26.879661665101 20.927305509405
1396 2 23.467493996581 20.088034334726 17.298518088857
1397 1 23.390838129689 19.887848240125 18.231406745450
1398 1 24.409461663115 20.162708527518 17.145702775049
1399 2 1.385249837855 29.451370521836 20.265131347734
1400 1 0.911451091208 29.911163480411 20.958194853425
1401 1 1.615447987846 28.606450126517 20.651589854323
1402 2 4.494415961517 16.992504879367 23.207038033121
1403 1 5.366959736553 16.600221157282 23.238860698502
1404 1 4.158675226916 16.761062825312 22.341044629714
1405 2 17.308173678725 29.501848640875 20.059581148414
1406 1 17.658738651699 30.052388120821 20.759754213267
1407 1 16.569669485972 30.000113226727 19.709472879771
1408 2 14.185722851083 4.433544674052 20.379074314332
1409 1 14.007964674194 3.615764700936 20.843692206926
1410 1 15.111758071684 4.379045357943 20.143022551472
1411 2 1.337346333116 29.350069332007 17.267165433579
1412 1 1.105196313165 29.153634818299 16.359557759492
1413 1 0.504094346222 29.563246962356 17.687258594980
1414 2 10.680095579469 17.193757476145 26.206726244140
1415 1 10.393871059296 16.473791910942 26.768826723568
1416 1 10.682094541711 17.959957169265 26.780456036300
1417 2 1.582388653657 13.930294090197 11.055545097245
1418 1 0.762064097067 13.708700462875 11.496221538851
1419 1 1.626755463876 14.885557230848 11.097207529546
1420 2 20.338944220607 20.400454614298 29.395236469159
1421 1 19.427452124562 20.361118068653 29.684833836248
1422 1 20.849670316385 20.226235995863 30.185830276422
1423 2 20.104729362862 20.385981573597 1.648799347815
1424 1 19.401747856594 19.770108594698 1.442040271337
1425 1 19.691294804257 21.247816701542 1.598362079935
1426 2 17.221130380102 20.378694063830 1.338450128345
1427 1 17.295372289425 21.250773278394 1.726003766471
1428 1 17.661870015536 20.453885747025 0.492089316081
1429 2 14.013988687673 29.419981623572 4.461830377512
1430 1 14.621730971930 29.723931696382 3.787667556551
1431 1 13.151060289536 29.686747337440 4.144935326125
1432 2 14.174377702180 4.612176981039 4.500322652330
1433 1 13.745461798476 3.915289064440 4.003724002263
1434 1 14.858274586258 4.937882155206 3.915144874668
1435 2 26.164091622301 7.762029807801 13.889392489431
1436 1 25.837203555958 7.140986728179 14.540300720548
1437 1 25.382753896164 8.222787211206 13.583703410594
1438 2 29.349148143471 4.825441329803 4.451120230886
1439 1 30.059849688559 5.001308125106 5.067728716166
1440 1 28.733373598759 5.546372975662 4.582691930287
1441 2 11.049904401653 13.989651129083 4.869235858853
1442 1 10.954416047417 13.099508587002 4.530473303392
1443 1 10.332139090052 14.478106656425 4.466177556280
1444 2 20.167849832484 10.896812066023 10.763372199113
1445 1 19.662503622136 10.146792803729 10.449798995735
1446 1 20.334485363996 10.704982042380 11.686229545438
1447 2 17.065988135640 17.294147373684 10.729713945393
1448 1 17.735455474621 17.785021180816 10.253176195042
1449 1 17.366387151167 16.385853961423 10.698164797793
1450 2 23.463503202393 23.429198259674 20.412062874256
1451 1 23.969181473649 22.640374384272 20.607711077866
1452 1 24.007698582980 23.915692847395 19.792864809122
1453 2 4.807545651945 29.668590357387 4.796877224838
1454 1 4.097367469215 29.044579835298 4.946842744528
1455 1 4.594636195211 30.413974970334 5.358395863901
1456 2 16.969212833513 7.551340654488 20.214432272395
1457 1 16.725992405076 8.026728676763 21.008838900934
1458 1 17.881322645073 7.795991109055 20.058119487451
1459 2 7.587789583820 20.289114837576 29.502490907342
1460 1 6.699130958424 19.946072808448 29.596511403831
1461 1 8.154818033797 19.551798233780 29.728488258397
1462 2 17.244807313086 29.318002680725 23.387335937688
1463 1 16.827021372063 30.179125001691 23.374882190528
1464 1 16.647693301813 28.754425508616 22.895332412682
1465 2 20.168738407275 4.556125420611 26.606805177250
1466 1 20.207285823349 4.261502438726 27.516719038700
1467 1 19.285215427754 4.910469591735 26.506509648692
1468 2 29.308422683022 13.995477179644 11.038277849610
1469 1 29.550245752526 13.070101403982 11.000421319464
1470 1 29.113325574684 14.154956898277 11.961714462303
1471 2 29.532173475821 23.104617183158 4.481552772855
1472 1 28.869665996421 23.180010478719 3.794798427603
1473 1 30.044675119811 23.909887642258 4.410044783036
1474 2 23.371474818589 26.586128225933 14.118994803321
1475 1 23.115951082439 25.831729471795 13.588125723398
1476 1 24.198004634457 26.880142352056 13.736064003931
1477 2 23.440765992254 1.518647583797 16.952190800241
1478 1 22.815755711673 2.211371223727 17.166031740781
1479 1 24.257229106247 1.981647672923 16.764438993439
1480 2 7.996218498666 7.555260164702 7.805689515393
1481 1 8.639026590083 8.223472286310 8.043433407312
1482 1 7.431554247712 7.983585302512 7.162320492193
1483 2 10.663112122640 16.990758900645 10.866838310223
1484 1 11.024921167037 16.676200294734 10.038358413762
1485 1 9.716259300394 17.000710973166 10.726829277456
1486 2 10.866325813718 4.741203193711 26.198421449636
1487 1 10.266974655458 4.418135983564 26.871204926559
1488 1 11.035193876560 5.650771527582 26.444187320681
1489 2 1.641684030485 29.289273231715 11.023007180712
1490 1 0.969750095221 29.957163264055 10.886407285611
1491 1 1.652199233550 28.789016535952 10.207001966974
1492 2 7.617579502401 13.895076122459 7.999292158376
1493 1 7.158923717683 14.258045880212 7.241585311303
1494 1 7.600774040453 12.948344634451 7.859117602685
1495 2 10.836215115454 10.841101159643 4.829246181966
1496 1 11.608923676497 10.546180371296 5.311091642971
1497 1 10.627382899921 10.114223706095 4.242500825546
1498 2 13.913368350434 11.049522896569 7.654289980392
1499 1 13.864763252759 11.716286607995 8.339341465760
1500 1 13.568343574809 10.257119210174 8.065733952269
1501 2 7.578847510860 1.772683420209 4.861308162676
1502 1 8.301749291392 1.261533854677 5.225136387750
1503 1 6.793684858004 1.276724048710 5.093204153119
1504 2 14.121191335360 1.620475104192 1.521881080453
1505 1 14.980901393667 1.700466846039 1.108684061003
1506 1 13.723759191979 2.485085245570 1.418300991465
1507 2 17.152101181454 23.501764489251 7.779022451405
1508 1 17.414187691657 23.004188881847 8.553593956230
1509 1 16.724458836246 24.283266569989 8.129177220595
1510 2 13.996482371426 26.559712337241 26.623011789770
1511 1 13.439276524338 27.235858528093 26.237551269655
1512 1 14.471670756677 27.009763650575 27.321497046514
1513 2 16.867396111477 23.407588653066 11.099150406917
1514 1 17.602883151742 23.906500187994 11.454647149402
1515 1 16.786761063832 23.710471650048 10.194721460437
1516 2 17.171094555138 20.030581360507 7.962643694604
1517 1 18.058268401108 19.900740719401 7.627538017326
1518 1 16.868619489133 19.150887379541 8.188207819184
1519 2 16.850211889027 14.104277073382 17.074623937616
1520 1 16.868491267578 14.883551572267 17.630167779007
1521 1 17.449710946162 14.307332720923 16.356570231758
1522 2 1.745141407089 23.448556523710 10.841840991506
1523 1 2.325663342397 23.508424936412 10.083130311611
1524 1 1.172149456024 22.706797716127 10.647660829317
1525 2 4.595780592662 29.429687430777 23.126054009042
1526 1 4.774810984713 28.896656812474 22.351419696174
1527 1 4.849891645052 30.316606414113 22.871036107605
1528 2 14.052941379010 23.409651264011 4.642225958023
1529 1 14.701231957513 23.402223483314 5.346424789248
1530 1 14.101904924102 24.294425175370 4.280273561939
1531 2 17.122362558434 17.096544953510 29.323796054662
1532 1 17.226821483653 17.527773357156 28.475643806047
1533 1 16.178727303636 17.107512277479 29.483996128651
1534 2 23.273969606916 10.829777033198 26.225868600828
1535 1 22.814275813281 11.073295725595 27.029368509071
1536 1 23.425258140171 11.660367563286 25.774799879861
1537 2 13.929618568628 16.866674591461 23.373057031306
1538 1 14.487179791229 16.453663292435 24.032434760631
1539 1 13.152537776106 16.309233408562 23.332602000687
1540 2 7.754424545567 17.269575053331 29.343523780036
1541 1 8.345742170185 17.908072963899 28.944906513705
1542 1 8.215483349890 16.434334085325 29.265876215225
1543 2 29.647594416302 4.750777063686 17.290009019992
1544 1 28.711224493794 4.776871171487 17.486890471022
1545 1 30.073411528875 4.759797868451 18.147231425044
1546 2 16.888966455180 10.650080695955 29.425630299477
1547 1 16.168509928784 11.280178406939 29.437922906442
1548 1 17.622651256293 11.131857565226 29.043754009493
1549 2 4.494664577264 29.514397735215 1.359047852247
1550 1 5.365946539190 29.122097521650 1.415617501884
1551 1 4.578494997539 30.188963786363 0.685130243578
1552 2 20.039283090455 7.925660343039 16.914572388501
1553 1 20.395619895177 8.447688658217 17.633420327743
1554 1 20.782695089812 7.411186004139 16.600109999929
1555 2 7.575810582055 26.392019090833 17.081397161638
1556 1 7.437967536621 26.887803364294 17.888508733239
1557 1 8.524506412644 26.275332102527 17.030483432810
1558 2 7.580497280432 23.397643109939 29.343426177577
1559 1 7.174967670061 23.136842997135 28.516527830575
1560 1 6.892599429551 23.274282206472 29.997498401608
1561 2 1.546529686900 7.853745352989 26.307910300694
1562 1 2.503164327981 7.870487473216 26.336224694470
1563 1 1.275182026218 8.432268425976 27.020590692640
1564 2 26.501410834592 29.558265367203 4.887003876973
1565 1 26.259779374109 30.473292810228 4.743578440546
1566 1 27.246364435112 29.597945102774 5.486755068433
1567 2 1.660424713541 29.526611482221 14.023764444991
1568 1 2.080234492910 29.906177910976 14.795723585948
1569 1 1.186822232756 28.764990777524 14.358228841261
1570 2 23.296778963159 11.090071789429 20.028348114115
1571 1 23.494008320911 10.427245859740 20.690159422097
1572 1 22.654774194150 11.663536457513 20.446917094128
1573 2 4.452817151485 10.763285102694 26.308026920248
1574 1 4.485578051706 10.073545346452 26.970912756630
1575 1 5.102288916672 10.500409643157 25.655865315277
1576 2 10.707448214948 26.577726962802 26.269360395123
1577 1 10.818093864862 26.414390491151 27.206008983006
1578 1 10.996634286941 25.767985088994 25.848740194031
1579 2 4.781690935641 16.960629554255 4.580034683865
1580 1 5.092460273960 17.586899129962 3.926245209413
1581 1 4.369347211784 17.501547197787 5.253542364824
1582 2 19.931610770650 7.919249310183 29.311914624656
1583 1 20.868828262789 7.831511307387 29.485573069006
1584 1 19.527029488676 7.213132615389 29.815844222526
1585 2 14.024264339922 20.185920083866 29.671289832369
1586 1 14.938702261717 20.464708302345 29.623203904897
1587 1 13.551777051505 20.818354403615 29.129981756051
1588 2 7.710613811971 14.146042748862 26.233001939660
1589 1 7.110207009535 13.648646050302 26.788285683209
1590 1 8.550654083130 13.696467633963 26.324906231695
1591 2 20.170820325938 29.424339658538 23.396059706899
1592 1 20.102482961254 29.240141953664 24.332880420860
1593 1 19.640334206214 28.745638976956 22.978708893313
1594 2 14.211336624646 10.912159783244 10.714462304740
1595 1 14.331652267265 10.161398331510 11.295937350405
1596 1 15.100054093877 11.209070120745 10.518867439343
1597 2 23.276750707731 17.183673004845 13.941050414695
1598 1 22.923471060678 16.428408521252 13.470943096307
1599 1 23.432606461176 16.862181834395 14.829073078505
1600 2 7.974403341954 29.478910256402 11.021132473349
1601 1 8.613369287201 30.165500162561 10.829955430857
1602 1 7.124850545874 29.891845173536 10.866288549076
1603 2 20.067225064556 10.766265876246 29.514031957996
1604 1 19.716316023867 11.656310865048 29.544274363157
1605 1 19.336427288071 10.210825646827 29.785422085724
1606 2 14.066656960183 23.324247167016 26.392670226546
1607 1 13.335145644980 23.934782643044 26.301185428671
1608 1 13.878063082118 22.842727472341 27.198153294523
1609 2 26.300194653917 16.916093248133 11.046866164023
1610 1 26.350331097923 17.602705655511 10.381823624770
1611 1 26.859954211591 17.228970677491 11.757505870057
1612 2 7.622886422774 17.233639990751 11.031198906281
1613 1 7.393356356394 18.162899821391 11.036093371198
1614 1 8.432635558757 17.189125828853 10.522714229850
1615 2 7.528750939786 13.900441888022 20.224861442046
1616 1 7.406959395438 14.052462222350 21.162031905557
1617 1 6.715000673419 13.483527741493 19.941621370003
1618 2 10.739618465564 17.223841688756 4.583183908353
1619 1 11.293730384012 17.989853900131 4.433460450407
1620 1 10.266608192404 17.105129530033 3.759533166317
1621 2 26.409049049218 1.433252558583 1.562608782339
1622 1 26.451871304436 1.093099816841 2.456305714607
1623 1 25.821465137152 2.186663295643 1.620481466419
1624 2 4.863840112054 4.585617602678 23.415169424099
1625 1 4.845729491694 5.030356247945 22.567754895763
1626 1 5.705872160095 4.832322405276 23.797727407217
1627 2 20.332958548191 17.293964911349 4.489247560092
1628 1 21.035025284497 16.662252083693 4.333449481963
1629 1 20.514156623762 18.009333903350 3.879619556558
1630 2 19.996036680580 16.837157450489 20.343334384764
1631 1 20.616415196494 17.089838197347 21.027084907367
1632 1 19.594874692681 16.031443340181 20.669103738626
1633 2 23.201797946823 16.901785630144 16.990300862859
1634 1 22.908547204867 17.806640884532 16.883189654531
1635 1 22.711090112294 16.410862107148 16.331186490613
1636 2 26.382346046792 23.109039910462 1.795554981090
1637 1 26.334137993079 22.230354021144 1.418966437093
1638 1 25.669086904575 23.136266139401 2.433326075215
1639 2 13.973914447868 26.444814571362 13.949341302083
1640 1 14.356683801357 25.772792272762 14.513349717104
1641 1 14.670836387627 27.091779655724 13.839943726705
1642 2 10.835091726338 23.066247673177 14.049080664075
1643 1 10.947365007755 23.595197225892 13.259245921256
1644 1 11.468239337474 23.425575701968 14.670562208642
1645 2 1.495867290969 16.943026433258 17.204747059668
1646 1 1.596532652966 16.646387234225 16.300256313176
1647 1 1.934048604771 16.271631764605 17.727679345092
1648 2 29.584761011836 1.715238844622 1.530360563425
1649 1 29.513711984426 2.598452513640 1.892462055501
1650 1 28.688595429994 1.482665623801 1.287402157769
1651 2 1.423533870899 13.989044465366 17.150381093838
1652 1 0.923784310398 14.522109492059 17.768704548104
1653 1 0.869132799965 13.941801658049 16.371510495020
1654 2 26.175028129877 29.709607392637 1.403470522294
1655 1 26.365987716314 29.757035600118 2.340229211329
1656 1 25.412090091181 30.275426902983 1.285124965457
1657 2 13.784149111621 10.865421269790 1.615272338519
1658 1 12.860970858145 10.642224896672 1.496288594522
1659 1 13.877467275519 11.006399310762 2.557423468779
1660 2 14.069433437432 29.270980263773 23.062747061167
1661 1 14.622681602158 28.489966094518 23.075599129142
1662 1 14.686234967450 30.002468933425 23.089431115210
1663 2 10.976767154847 20.367480326144 1.411988135941
1664 1 10.145651257874 20.803957398298 1.598980037592
1665 1 10.824438804944 19.903924816510 0.588493021624
1666 2 10.882134885856 29.597119495803 4.683964463840
1667 1 10.338404619987 30.371474354465 4.539175683733
1668 1 10.508309272320 29.183455770137 5.462018814598
1669 2 1.787819497727 26.200977971915 29.461707738134
1670 1 2.733741453456 26.310996314880 29.558452029343
1671 1 1.623227113433 25.295807989195 29.725920700375
1672 2 7.544196513586 13.738260004119 1.352361180848
1673 1 8.280429741428 13.306756191619 0.918775048667
1674 1 7.330755326984 13.165929108562 2.089322540658
1675 2 1.390132999701 23.151386308715 16.905523863470
1676 1 2.221581348799 23.310230458027 17.352395230881
1677 1 1.133047173783 24.008311260802 16.565202919944
1678 2 7.877482856723 13.826544408985 10.870426469505
1679 1 8.410749430191 13.925430888703 11.659146993994
1680 1 7.554217469239 12.926478587004 10.910586715475
1681 2 14.197736536608 4.642841294903 23.418236078012
1682 1 13.623307804979 3.878837556084 23.367622252335
1683 1 14.829702458787 4.423014741870 24.102726545284
1684 2 23.051915828157 23.268169435920 4.771794118828
1685 1 22.289072174307 23.772009248364 4.488162591708
1686 1 23.788653615941 23.667105790697 4.308869657508
1687 2 1.742914174770 26.439533456523 20.225408666253
1688 1 1.094208437986 26.332235365888 20.921037753346
1689 1 1.254880065236 26.286065849139 19.416395538167
1690 2 23.378443868432 4.764630845695 26.234641047829
1691 1 24.062216839258 5.174372316135 25.704737007677
1692 1 23.218216144514 5.387839631757 26.943280395779
1693 2 7.633927998753 10.968876127487 10.714905734755
1694 1 7.500268117872 10.900591756664 11.660264989717
1695 1 8.495198251238 10.578842025413 10.565510984500
1696 2 4.469002120779 26.255935307174 17.007014483975
1697 1 4.008971475419 26.951828957574 17.476413751832
1698 1 4.904676030778 25.750793855309 17.693492595609
1699 2 29.674491027084 4.501703809118 11.065491926335
1700 1 28.825157460379 4.935218191885 11.148736219844
1701 1 29.802173598350 4.403140293877 10.121980275926
1702 2 14.040277268140 29.464239337404 1.534723456003
1703 1 14.967389498923 29.693790720534 1.597976234877
1704 1 13.577427443366 30.264502033978 1.782879649114
1705 2 29.406892219856 20.210635977050 4.689243472906
1706 1 29.430660698622 19.485261865032 5.313342260784
1707 1 28.794639200089 19.924159057318 4.011520037981
1708 2 29.266581280956 26.551926205718 17.170751384074
1709 1 28.962783955634 25.828433331057 16.622575239535
1710 1 28.636870571183 27.254900552161 17.010991156728
1711 2 26.577064583514 26.183917378152 20.395571355304
1712 1 26.632347422668 27.124714747430 20.228012536812
1713 1 25.667288668179 26.039545809620 20.655756816228
1714 2 4.622577780481 29.597795021473 20.380099551477
1715 1 4.933403994335 30.465420810634 20.121556721826
1716 1 4.076381005416 29.758027023800 21.149662172931
1717 2 29.377762584706 4.782462754073 1.393449004103
1718 1 29.636395537356 5.500716653129 1.970902181681
1719 1 29.759094146335 5.007581153407 0.544838500758
1720 2 14.195993177504 1.395374303305 7.966314442751
1721 1 14.694479582639 0.889512814565 7.324561142716
1722 1 14.710676638474 2.191908965106 8.096180941722
1723 2 29.487641742784 1.659519585784 7.965120720007
1724 1 30.429713222537 1.524837011207 8.068046766957
1725 1 29.101330547518 1.257629587377 8.743246628581
1726 2 29.646503399236 4.464916763563 13.945471512666
1727 1 29.533804668240 3.529388201883 13.777194519844
1728 1 28.763839986543 4.828983406931 13.877702647540
1729 2 7.957429073443 1.319062948175 11.043997706504
1730 1 7.190515536695 1.777033002940 10.699993497096
1731 1 8.636567335538 1.991796425903 11.093320408198
1732 2 4.685069277973 17.099317532103 29.568193743284
1733 1 5.072533392140 16.593666499736 28.853756598603
1734 1 4.638833116480 16.484124327606 30.300062159402
1735 2 10.757487573894 23.456835263545 23.431139290175
1736 1 10.492266265486 24.203144373358 23.968644834498
1737 1 11.424339213173 23.010297109963 23.952813909633
1738 2 14.063867610173 17.009288688004 20.193551105143
1739 1 13.918788347312 16.122340680859 19.864146976284
1740 1 14.948649696454 16.988144205887 20.558167904909
1741 2 20.265464012598 26.626624644619 11.043535464782
1742 1 20.522963124525 26.950666754867 10.180446385867
1743 1 19.464894403565 27.108284045468 11.251680516768
1744 2 23.483993712858 20.336650276095 23.151592676754
1745 1 23.325456439302 21.271803238905 23.280382074766
1746 1 23.241561906833 19.934999100193 23.985939722248
1747 2 13.820320662145 20.160541871637 13.871984024408
1748 1 14.549381424707 20.600206214089 14.309474036259
1749 1 13.396338109976 19.652731511275 14.563792721495
1750 2 13.788840661019 17.245010342116 29.601354411058
1751 1 13.378959154575 17.670013736281 30.354747472895
1752 1 13.221578953944 17.466537145118 28.862861438013
1753 2 7.843310791453 29.647365451569 17.025173831533
1754 1 7.860906475349 29.629641964580 16.068299696698
1755 1 8.027982353830 28.744905258490 17.285354257309
1756 2 1.650572192274 1.410471437518 26.272184605115
1757 1 0.883292859264 1.678649267249 25.766620645980
1758 1 2.274771697230 1.101733126884 25.615459797025
1759 2 26.168474188520 7.844578111613 23.176455769576
1760 1 26.778513905967 8.420638524272 22.715763047576
1761 1 26.263705592355 6.997191986484 22.741599960528
1762 2 11.075370480364 13.839816818448 10.765248445027
1763 1 11.081690622911 13.387379557013 11.608748545954
1764 1 10.900886113879 13.150476192517 10.124470365429
1765 2 16.869699894630 4.807146772810 1.742340895108
1766 1 17.026863065420 4.186374932880 2.453799889357
1767 1 16.745830361597 4.258318808767 0.967953366366
1768 2 1.506394769694 20.391525909765 16.958940612936
1769 1 1.089610818605 19.718041696378 16.421407365189
1770 1 0.780629936688 20.930183636483 17.274131191188
1771 2 29.668613980924 1.611930319391 17.168226572434
1772 1 28.808899132308 1.208923671095 17.289502540783
1773 1 29.478023916029 2.528574404464 16.969051050684
1774 2 1.380735341869 1.738647090769 29.567675583455
1775 1 1.391391524402 1.402280000314 30.463764566890
1776 1 0.657759537749 1.274472185395 29.145680934344
1777 2 20.039863189151 10.906116633901 7.996492186458
1778 1 19.942046249545 10.712143337870 8.928714288080
1779 1 19.180948652735 11.232147938610 7.727789288291
1780 2 23.228163193720 7.867931335682 23.369528703870
1781 1 23.733070102542 7.518468210959 24.103815008987
1782 1 22.786105572604 7.104792959370 22.997457852803
1783 2 10.949899720978 17.225510751300 23.340094894925
1784 1 9.998404016375 17.267472685785 23.244559769567
1785 1 11.277661064658 17.144070933857 22.444454399121
1786 2 17.168649348168 20.231187741129 14.095482043152
1787 1 17.990327980656 20.378060666182 14.563995019279
1788 1 16.947127529819 21.085856663889 13.725751118745
1789 2 23.475867573366 20.369322046455 20.023831576909
1790 1 22.550141480540 20.425484725120 20.260704527214
1791 1 23.866393093772 19.826745212566 20.708909701825
1792 2 17.118311958906 26.262490959830 26.156932558503
1793 1 16.994664190674 26.308433688383 25.208864873628
1794 1 17.642593753899 27.034947925158 26.368286943729
1795 2 4.640924442690 20.020374996904 23.513001585489
1796 1 5.036977966209 19.156567839900 23.398064028457
1797 1 4.360360163669 20.035918219103 24.428028324761
1798 2 1.684301843960 17.177464933930 23.136704922844
1799 1 1.398470333572 18.090820270032 23.154431109252
1800 1 2.276059149828 17.096628645054 23.884716035965
1801 2 17.161345447924 10.793705390826 23.253700921767
1802 1 16.277559055737 10.947206506405 23.587753104070
1803 1 17.736338868953 11.010779245616 23.987521981249
1804 2 7.610846350534 10.987794724445 26.249013737469
1805 1 7.408339176523 10.059449393755 26.133265599426
1806 1 6.756019452677 11.416315371346 26.292290404150
1807 2 7.691203198457 10.858861085116 17.032666447183
1808 1 8.537987950250 11.293837200710 16.932750467505
1809 1 7.183314233804 11.145089901992 16.273486821552
1810 2 29.660192246234 26.492914220154 7.911103879344
1811 1 29.167717996313 25.688286865100 8.073201913459
1812 1 29.050067875573 27.055830035142 7.434547610303
1813 2 10.979085758170 10.693312709592 16.843195042180
1814 1 11.662539440280 11.308151142239 17.109834510659
1815 1 11.444475118255 9.872770556407 16.680852323318
1816 2 10.860122489832 7.710904553768 13.939550526664
1817 1 10.674934206141 6.790484873587 14.126003609019
1818 1 11.024089912869 7.736524291463 12.996846886477
1819 2 16.906038510179 4.568198772120 4.410517280700
1820 1 16.908349349683 5.460093595453 4.758008466392
1821 1 17.552962945935 4.583763715370 3.705195831314
1822 2 23.415189263823 10.894012540655 29.362752095261
1823 1 23.572489009452 11.211175201784 30.252075701386
1824 1 23.981363753476 10.126890496894 29.277887159973
1825 2 23.271620064786 4.607433589591 4.748419653631
1826 1 22.971077382868 4.526465348358 3.843240069097
1827 1 22.922969141100 3.831545005494 5.187363019548
1828 2 7.578165464714 7.871005296168 17.197387348681
1829 1 7.548193071059 7.826048916433 16.241713544739
1830 1 6.676051278632 7.709448480636 17.473650322359
1831 2 17.007590321445 20.031851080031 20.083500682658
1832 1 17.321154020775 20.348336415979 19.236301368097
1833 1 17.235709834192 20.728303310673 20.699250321989
1834 2 20.323472506430 29.544529842667 26.337742307443
1835 1 20.878145055461 30.069108989046 26.915138984378
1836 1 19.491774171712 30.017491739577 26.309163222463
1837 2 23.125849609414 7.606449363378 10.631720067248
1838 1 23.882610862913 8.147931422443 10.856089015439
1839 1 22.399460816452 8.225989116489 10.562715315426
1840 2 23.293415315677 26.452653195131 26.420907961257
1841 1 23.121488064680 25.621261004564 25.978799506430
1842 1 24.237759255276 26.581087566642 26.331739716031
1843 2 16.835305902502 7.790966340448 29.319520625403
1844 1 16.087200651273 7.377087402425 29.749955983784
1845 1 16.709309858631 8.728150201208 29.467990312749
1846 2 1.395112587303 14.064604874720 4.614914583749
1847 1 2.275850148968 13.744934136407 4.810730330150
1848 1 0.815872020721 13.350860710062 4.881900488701
1849 2 23.348765968341 23.496964120459 29.332936382824
1850 1 22.445853728264 23.383089248380 29.036265116558
1851 1 23.557746589684 22.679523666465 29.784987313669
1852 2 4.428644150293 23.503205745595 17.159474591245
1853 1 4.022741751645 23.988000022047 17.878118865063
1854 1 3.990592266574 22.652151850270 17.166521180730
1855 2 20.341994597036 17.080132039929 23.312565518799
1856 1 20.283908898852 17.309178345825 24.240140680940
1857 1 20.014619998487 17.853594856446 22.853421768225
1858 2 17.193922085227 26.453823930592 20.120016346614
1859 1 16.287337603717 26.760952429058 20.122932390909
1860 1 17.684468145502 27.157901926831 19.695904830666
1861 2 13.955959880614 1.643216789313 14.132885444215
1862 1 14.073587146292 2.107443516529 14.961673241005
1863 1 14.280291773461 0.759207750666 14.304840911918
1864 2 7.549583532519 29.259214538248 7.845951258806
1865 1 7.233652367258 28.965200363482 6.991565512288
1866 1 8.457719688955 29.518346074982 7.689837812740
1867 2 10.804669904341 7.731842146426 4.728808321535
1868 1 11.405641510499 7.977375789241 4.025403602445
1869 1 10.311992014380 6.990956664739 4.375836594948
1870 2 20.022594526446 20.145657002823 10.627567928797
1871 1 20.154008796604 20.765579758393 11.344964546245
1872 1 19.894228144472 19.301555159087 11.060287225085
1873 2 1.555772444683 13.923957204887 7.904999978580
1874 1 1.542755258451 13.797405000788 8.853708011908
1875 1 1.222343770736 13.100589508652 7.548457139379
1876 2 29.252827239869 29.278161594951 26.413079411930
1877 1 28.579947156637 29.670343365974 26.969548361708
1878 1 29.123318073962 28.334592562421 26.508665482019
1879 2 11.067267524857 20.157721346060 7.570435631930
1880 1 10.561030106380 20.880642772340 7.941029921632
1881 1 10.526154103292 19.382971355087 7.722720091050
1882 2 20.140481828574 26.564022027434 7.610917268149
1883 1 20.101972134023 26.939604500613 6.731322674449
1884 1 20.396425374066 27.295238251030 8.173098356297
1885 2 7.591124514906 17.215829182878 20.041216631821
1886 1 8.257908701908 16.864421572188 19.451179871006
1887 1 8.082450309950 17.740586410406 20.673245630587
1888 2 17.258427327595 26.561697263527 11.095063403590
1889 1 17.811613411542 25.843367873504 11.402015979662
1890 1 17.670767806944 27.349990678579 11.448334773608
1891 2 26.550496189144 1.607936913371 29.519235848555
1892 1 25.815890275769 2.162841774483 29.781278950256
1893 1 27.264129692858 1.862466942057 30.104191852775
1894 2 23.070256961807 29.423894913959 13.997432728572
1895 1 23.782342063171 29.043116358351 13.483453799039
1896 1 22.272780979363 29.086526578292 13.589454170907
1897 2 20.254259959239 26.219610255540 13.759411600168
1898 1 20.710757320299 26.273192088180 14.599037103923
1899 1 20.933016798122 25.968893909145 13.132783873907
1900 2 13.947435597015 1.748967319039 19.969279346695
1901 1 14.283393342912 1.051970783276 19.405754669234
1902 1 13.772047626048 2.476510906377 19.372495275055
1903 2 29.710529153493 4.665580154724 7.669042371792
1904 1 30.414136189275 5.113926227802 7.199835830967
1905 1 29.255976013972 5.362216567148 8.142657186001
1906 2 10.911416881305 4.685337825354 23.044585345629
1907 1 10.615241565698 5.405884217145 22.488415479758
1908 1 10.408333465359 3.928244922860 22.744669934899
1909 2 20.279832987564 23.093753009945 1.558015863787
1910 1 19.764205140769 23.471148316520 0.845321998102
1911 1 20.755426567583 23.836673505478 1.929649721182
1912 2 29.388133492510 20.186632548866 20.359715305275
1913 1 29.378523882826 19.311017061773 20.746286145050
1914 1 29.158637365144 20.770626773874 21.082566681895
1915 2 1.444967072042 26.389271584918 26.541926039046
1916 1 1.811409366094 25.549312328610 26.265483761395
1917 1 0.566996440690 26.175754751225 26.857853201875
1918 2 17.055098206919 4.514646460917 7.980145622749
1919 1 16.189813268255 4.163658616194 7.769619263882
1920 1 17.637958715271 4.122021252166 7.330260314977
1921 2 20.315954502109 7.949349502938 7.970524918277
1922 1 19.499372090385 7.536990011705 8.252277744089
1923 1 20.976353387456 7.612311272761 8.575925928873
1924 2 20.223540311592 16.915446898501 1.636958461228
1925 1 20.411738573645 16.713272754361 2.553440250246
1926 1 20.835980608178 16.372380096459 1.140745632254
1927 2 11.020298849379 10.811545090887 13.862771249187
1928 1 11.129793632561 11.743935416995 14.049562609365
1929 1 11.638729208187 10.634552592598 13.153934605910
1930 2 13.837653232315 23.323911751783 10.732532599925
1931 1 13.487934058530 23.951913266920 10.100438907128
1932 1 14.130550368031 22.584755516809 10.199530565981
1933 2 29.643921470965 4.848287070293 26.566128197956
1934 1 30.356988311395 5.481466779236 26.648898828387
1935 1 28.883092943461 5.293555142239 26.939100228868
1936 2 4.838259387589 23.209530447686 26.179854716263
1937 1 4.690631532083 22.926204638572 25.277544158767
1938 1 5.552807379448 22.654288393940 26.491879184987
1939 2 29.680248010129 29.428676921489 11.009721534074
1940 1 28.984860977440 30.075973758320 10.892779155969
1941 1 30.369542921543 29.899014107839 11.478642952047
1942 2 29.437911380853 4.734216389759 23.440764354962
1943 1 28.926052082814 5.320692158526 23.997790450994
1944 1 28.966777876084 3.901579897662 23.472093777421
1945 2 7.711911457126 4.783450822794 4.501902323347
1946 1 8.200839141445 4.191442914062 3.930318387686
1947 1 7.989908418761 5.659432311901 4.234309423471
1948 2 4.537117359472 7.812606235099 10.787209242564
1949 1 4.033487087426 7.851413721042 11.600278961661
1950 1 5.137757920552 7.077800209841 10.911800019229
1951 2 17.279478283824 16.920504134942 16.997322338560
1952 1 16.580851432118 16.452404173505 16.540119114404
1953 1 17.288986712826 16.539458313981 17.875357367534
1954 2 29.401527144213 16.964794055168 7.558456836454
1955 1 29.870037685976 16.651195666693 8.332010818411
1956 1 29.187341820640 16.170453011362 7.069193315136
1957 2 1.765162988426 4.505934465561 17.108753633033
1958 1 2.371727036972 3.806153988186 17.350867611351
1959 1 1.900053465895 4.625889592764 16.168728544780
1960 2 10.942835303315 29.690171959750 11.060771849204
1961 1 10.589881301417 30.548703438780 10.827150334660
1962 1 11.803824153685 29.878226895139 11.434356352113
1963 2 26.156202967458 10.817676235413 26.315388269447
1964 1 26.499167456635 10.340672298284 25.559693593585
1965 1 25.704342542265 11.572375821652 25.937919687078
1966 2 20.387063505390 29.737033006691 20.197340770696
1967 1 20.498716280481 28.931443615490 20.702109262779
1968 1 20.393626583171 30.434105815283 20.853296764290
1969 2 11.019905278870 7.949998809621 10.862699891169
1970 1 10.595582072225 7.251935549380 10.363811786475
1971 1 11.873638193710 7.589203292264 11.101862063708
1972 2 7.569808153610 26.554380020172 29.326393390092
1973 1 8.459637629216 26.906255923240 29.351266933952
1974 1 7.673212791261 25.625459251151 29.532901321645
1975 2 4.872267742039 26.161770781721 20.091246324658
1976 1 4.781589914725 27.043146224810 20.453443370411
1977 1 5.815737934741 26.043360944415 19.981360265885
1978 2 23.091087008298 26.235096325755 7.994379865797
1979 1 23.559961265000 27.062604567349 7.886588950152
1980 1 23.394010585294 25.691152876923 7.267334701469
1981 2 7.901338173992 23.512985624028 16.885417617669
1982 1 7.306075830073 23.532772072211 16.136082526818
1983 1 7.334871956691 23.645855199683 17.645479154995
1984 2 26.172971543500 20.235755313481 23.316033320474
1985 1 26.085918122595 20.461390948865 22.389889648059
1986 1 26.106825451369 19.281089378184 23.337700957144
1987 2 10.695458429898 13.922378283739 1.777165810610
1988 1 9.971733408338 13.351334430464 2.034775691638
1989 1 11.469455995862 13.522690204516 2.173913900977
1990 2 1.339509150303 16.833178481585 26.147619927187
1991 1 2.200952210645 16.478177546072 26.366987266536
1992 1 0.732523567589 16.113095971674 26.318738369492
1993 2 10.710950449210 1.427263944361 20.333135492272
1994 1 11.216244850772 2.233022707137 20.225143714993
1995 1 11.296940612624 0.838426072145 20.808653450529
1996 2 1.546072982116 1.701382923286 7.762186062406
1997 1 1.940301474396 1.694219032816 6.889967962074
1998 1 1.080506327861 2.536461341026 7.808268235423
1999 2 7.514843434383 1.415980043446 20.188468769628
2000 1 7.178086091623 0.753979325147 19.584663021834
2001 1 7.841571986331 2.114256115381 19.621114541033
2002 2 14.214082982791 7.704525848847 26.543746049395
2003 1 14.874639638135 7.284690684798 25.992715033834
2004 1 14.484693810138 8.621693603056 26.586230526114
2005 2 7.930490195873 26.308427874352 20.082975838646
2006 1 8.043247064323 25.490271074391 19.599098602877
2007 1 7.699891137819 26.032733510526 20.970133396343
2008 2 16.924790197805 26.505237111828 7.932026475326
2009 1 16.881105144864 27.108771968887 7.190360018982
2010 1 16.546885943805 26.994940398485 8.662513234854
2011 2 13.896678921182 1.508393497952 26.236355697826
2012 1 12.951844165840 1.514149654352 26.083104297300
2013 1 14.102123507226 0.594710561743 26.434365430281
2014 2 29.302454848733 7.795559876985 26.455456275802
2015 1 28.844792991888 8.466384018387 25.948729094667
2016 1 28.618471523044 7.173256007850 26.702714328531
2017 2 11.096588258723 26.417149620931 1.320377718224
2018 1 10.394526470649 25.842742635232 1.014767344533
2019 1 11.887996706204 26.067728360010 0.910732393983
2020 2 26.219885627481 17.066502115242 26.452947931592
2021 1 26.303532819815 16.671584958583 27.320862343612
2022 1 25.756009113687 17.889416763639 26.607420911117
2023 2 10.627963718807 7.997761816957 16.865152752443
2024 1 9.709193900187 7.873089473660 17.102956594316
2025 1 10.709737117700 7.591699906881 16.002216673456
2026 2 20.038192540005 1.770361139915 1.618479480166
2027 1 19.695778930852 0.878253489257 1.562544697557
2028 1 20.495030867199 1.904576716360 0.788108020007
2029 2 26.343243395332 14.061715698570 23.415518124932
2030 1 25.725639437234 13.384686358666 23.139061141207
2031 1 27.203040508649 13.648134898255 23.338500688311
2032 2 7.969780825736 29.507114236614 20.242763027082
2033 1 7.659044036590 30.412426073821 20.233545365547
2034 1 7.241988918745 28.999905727484 19.883193411589
2035 2 23.215374449639 29.406610215748 1.783989399220
2036 1 23.810833323044 29.202989067120 1.062741177097
2037 1 23.791065961494 29.580426951858 2.528703347946
2038 2 4.510605885524 20.228803878860 29.452850830571
2039 1 4.725881787227 19.300882973052 29.546930151942
2040 1 3.648195802216 20.234182607784 29.037577718652
2041 2 10.842856834256 1.729152273729 23.038704042023
2042 1 10.555442687738 2.586367591892 23.353039605852
2043 1 11.797615564968 1.791519855980 23.010813347992
2044 2 26.537704028443 13.947662022264 26.191992166094
2045 1 26.990140712889 13.571473908686 25.436998530511
2046 1 25.865347125918 14.512933859821 25.811682048829
2047 2 20.089167136872 29.678144568011 10.799102539402
2048 1 20.001147329044 28.915890957243 10.226866760811
2049 1 20.968893832811 30.011085092574 10.621723319777
2050 2 4.512718831284 10.730125615452 29.592406330910
2051 1 4.216735522831 11.413356745984 28.990890792133
2052 1 5.202834633989 11.147057888868 30.108293429257
2053 2 20.327045479581 14.176994385320 17.243015411654
2054 1 20.896338964141 14.936760568144 17.120982154407
2055 1 19.536730382555 14.386909172298 16.745451677424
2056 2 29.381385609985 23.044669749229 17.256468519350
2057 1 30.042173423738 22.771222466446 17.892721526207
2058 1 29.839632354363 23.659791816788 16.683872149060
2059 2 29.541543088916 29.647815065452 23.308821063395
2060 1 30.249652788261 30.164468521428 22.924267165845
2061 1 28.830108491573 29.703414103157 22.670854449292
2062 2 1.307075087152 7.541801494545 4.825305974833
2063 1 1.917451143670 7.310357744972 4.125229764401
2064 1 1.727200694642 7.224390826630 5.624666207660
2065 2 10.900827293321 14.079959438397 13.984480066511
2066 1 10.022441026029 14.214828154384 14.340120102053
2067 1 11.372605582483 14.884836613759 14.198559067018
2068 2 29.498055238151 23.383815665675 29.517615024166
2069 1 29.746205774014 23.742715107457 30.369580013024
2070 1 28.644574350582 22.977317046523 29.667818510086
2071 2 29.694264534596 23.201923940027 1.498515635728
2072 1 29.081868720261 22.474534050732 1.608548156087
2073 1 30.541191647729 22.781965520852 1.348245108995
2074 2 11.037360625294 26.517863249885 17.156275743990
2075 1 10.794192907172 27.401973692722 17.430957424723
2076 1 11.894944179155 26.370048206823 17.554939764428
2077 2 7.590023867718 26.251309319561 10.688780466007
2078 1 7.042843860876 26.921394765262 10.279132598233
2079 1 7.956820969722 25.759040020362 9.954367324085
2080 2 10.902071167303 10.635169825953 11.014615346426
2081 1 11.429590722386 10.550576135534 10.220386873915
2082 1 10.017183290291 10.814907053302 10.696968035370
2083 2 17.183694421163 29.624530087329 26.600253386299
2084 1 16.459283142359 29.722857957149 25.982360378444
2085 1 16.762547342522 29.400539135202 27.430129902124
2086 2 17.036819479029 29.414135785498 4.658844137071
2087 1 16.920793967620 30.329863038637 4.405440272537
2088 1 16.324703040724 28.950977586400 4.217701868745
2089 2 4.735384862307 10.682917798854 20.257620440590
2090 1 5.515381505751 10.947566930769 20.745265714527
2091 1 4.471180099549 11.470338465339 19.781809157278
2092 2 23.468564650259 14.068675294630 14.119004436764
2093 1 23.393323761159 13.442417960464 14.838985269850
2094 1 23.192188382742 13.578489532412 13.344688017415
2095 2 7.754980130899 14.171596813008 17.293973971823
2096 1 8.003692936080 14.832169128160 17.940517084843
2097 1 8.378381083609 13.457744835797 17.428206780006
2098 2 17.001198161225 10.917974038308 17.211348551353
2099 1 16.477358562601 11.704761238472 17.060385587115
2100 1 17.793028218217 11.236367880630 17.644779470895
2101 2 4.858015574612 7.643641561706 14.073289473461
2102 1 4.069817584110 8.186727039247 14.067464368145
2103 1 5.581358651425 8.270273033903 14.054860385593
2104 2 14.006742731909 7.799563241889 11.045472696040
2105 1 14.099386532598 6.896677667532 11.349523030380
2106 1 13.624525082270 8.265254020836 11.789296335559
2107 2 26.627105382108 4.873108124460 16.939073462771
2108 1 26.698150696394 5.570350888652 16.287124898006
2109 1 27.166387449136 4.163081109995 16.590837435181
2110 2 1.554096549158 17.018207384135 4.887816096074
2111 1 2.128057167956 16.824976426269 5.629073706485
2112 1 2.151743262355 17.201372174615 4.162901683379
2113 2 4.883054002234 17.012541676853 10.922792683312
2114 1 4.906051973955 16.156310789414 10.495508701993
2115 1 5.646359438808 17.474402209114 10.575976450653
2116 2 26.269484672848 16.863562690235 1.463078025256
2117 1 25.623080833378 16.180421442549 1.284999525636
2118 1 27.050859073158 16.387278755989 1.743861750780
2119 2 23.467863795225 29.696423609107 23.287737936765
2120 1 24.227436990305 29.964074439477 23.805080603010
2121 1 22.883377892432 29.276742182333 23.918987150195
2122 2 19.979909802586 16.873089360104 17.242679652452
2123 1 19.503814282375 17.687533178272 17.080672977645
2124 1 20.627722785286 16.829818240020 16.539332092841
2125 2 17.306422307284 13.875123944584 4.817629750025
2126 1 16.452457883981 14.108463945765 4.453584357826
2127 1 17.103774779748 13.445650295246 5.648724331952
2128 2 7.665599319985 4.678165579735 1.592644253489
2129 1 7.204944580198 5.256302448112 2.200745241924
2130 1 8.458021701299 5.160454613258 1.356644470152
2131 2 26.597290409055 13.864801021510 14.126628222527
2132 1 27.287894771570 14.022997523860 13.482989099168
2133 1 27.065354842995 13.633340662274 14.928858630691
2134 2 4.696218117805 17.289965707166 20.123075182085
2135 1 4.505036742799 18.175610478689 20.431806230934
2136 1 5.175249910251 16.882453103182 20.844666381741
2137 2 7.698863569525 26.512120075235 23.171565061829
2138 1 6.910991430033 26.465911727241 23.713186812120
2139 1 8.273296913613 25.832949318981 23.525097602126
2140 2 10.950319682562 26.251211187928 20.064501380982
2141 1 11.408918803331 26.199320105551 20.903087096338
2142 1 10.970161732557 25.356702203512 19.724366393294
2143 2 26.586760432466 1.538694464617 10.763060763399
2144 1 26.742274738300 1.557815500933 9.818771863405
2145 1 26.998414806759 2.338490817284 11.090319545385
2146 2 26.169355755736 11.014278324993 4.558808237253
2147 1 26.971174280972 10.882797279523 5.064803916354
2148 1 25.680186601289 11.673406042024 5.051247097396
2149 2 20.251988359918 7.780391302994 4.690256865773
2150 1 19.320622418134 7.966813570445 4.571782983911
2151 1 20.616862390289 7.808978398757 3.805790043379
2152 2 20.008940004296 1.323270043356 23.348116746301
2153 1 20.798779261748 0.916003795152 22.992420259867
2154 1 19.308756230063 0.700811236173 23.151852751488
2155 2 16.944488153815 4.599375867704 26.584885164166
2156 1 16.736882763223 4.257542141008 27.454529657675
2157 1 16.175696883100 5.114162420024 26.339555533621
2158 2 14.142090023899 23.240331276978 23.522155957203
2159 1 13.515638329488 23.211591989206 24.245318572324
2160 1 14.536486524154 24.110533269407 23.580736952072
2161 2 1.775323686887 23.258938654130 7.701079162153
2162 1 2.375848001024 23.946534600871 7.413304593860
2163 1 0.942072833329 23.478051075453 7.284048465601
2164 2 26.447303880304 7.616368400236 1.769014333452
2165 1 26.826079181567 7.626384259008 0.890003074294
2166 1 25.656433176567 8.150570342017 1.695640936578
2167 2 26.355462476451 23.439877162880 20.289386151409
2168 1 27.170239000273 23.228168731212 19.833808939304
2169 1 25.980449140359 24.163096185477 19.786841543332
2170 2 10.697774495483 1.731339039344 29.352325730983
2171 1 11.376593769914 1.719546695643 28.677568609279
2172 1 11.152305013606 2.016322095161 30.145054250712
2173 2 14.084900053579 29.371302315908 19.991226433055
2174 1 14.054909901259 28.453171711565 20.260240603933
2175 1 14.711823668569 29.776570009588 20.590356400113
2176 2 26.497059087684 29.659663973057 29.305832299870
2177 1 25.784581714332 29.021116166735 29.276429383293
2178 1 26.731656117053 29.799893812631 28.388481949183
2179 2 29.678153753987 14.140931033135 17.019794037883
2180 1 29.674397920559 13.194301970434 16.877980246720
2181 1 30.065251680331 14.501565575983 16.222091234876
2182 2 1.388764022544 8.004248312176 13.772956262649
2183 1 1.757852190885 7.157235419205 14.023106064030
2184 1 1.709802081303 8.612074382856 14.439074775100
2185 2 17.246243748611 1.757391459935 29.456146639235
2186 1 17.058688951103 2.685796742344 29.317876362148
2187 1 17.722549386726 1.729771139192 30.285967039673
2188 2 10.951628309839 10.964257359660 1.591158216244
2189 1 10.609439209833 10.076367943879 1.695037209217
2190 1 10.261322582930 11.434297219550 1.123427125220
2191 2 7.942125500644 10.914338621311 29.313560585283
2192 1 7.184301259310 11.430491979534 29.038751615194
2193 1 7.935687940370 10.968631424794 30.269197906293
2194 2 4.703272699430 1.647920653395 1.334222085998
2195 1 4.177743559609 1.254230315012 0.637760399570
2196 1 4.672744520645 1.010325641355 2.047504968816
2197 2 10.731213855565 29.691356899989 14.139634706030
2198 1 9.855690798843 30.029386779399 14.327855368484
2199 1 11.237808127029 29.884679992955 14.928444103696
2200 2 16.835416683073 20.120465409676 10.709791133135
2201 1 17.692408793745 20.518579541612 10.557142843926
2202 1 16.782027032837 20.022916237259 11.660509568955
2203 2 29.606938960876 16.999122596765 23.492157847569
2204 1 29.050770583468 16.778673520698 22.744955879670
2205 1 30.391280977634 16.463359577774 23.373847120116
2206 2 19.933212313447 4.429729881862 23.123295378186
2207 1 20.164973432840 5.350012271217 22.998399632134
2208 1 20.762784057106 3.959729319621 23.038784824907
2209 2 14.098533126661 23.376788716721 19.958447210318
2210 1 14.167397536825 23.200086364776 19.020222390869
2211 1 13.171165346235 23.250352476282 20.159033144351
2212 2 17.201230004853 4.578281557336 13.796254426340
2213 1 17.955793999792 5.085910154430 14.094881660451
2214 1 16.880963548872 4.138506088124 14.583819518159
2215 2 7.655627374798 4.846995457455 10.836631467853
2216 1 6.818533016056 4.443161397768 11.065592003316
2217 1 8.187499250412 4.124340874825 10.503293048024
2218 2 10.740963854899 1.739702389902 10.707998188625
2219 1 10.654314410954 0.818868233680 10.954550760298
2220 1 11.679533572127 1.917303279588 10.769452642367
2221 2 16.826118040900 11.064202041399 7.800450348449
2222 1 16.841726109661 10.494095204247 8.569193753248
2223 1 16.755141360218 11.948823050077 8.159114288377
2224 2 23.274527707896 16.886340692590 23.144056462507
2225 1 23.508999072814 16.004846797462 23.434269370365
2226 1 23.439542500537 16.880418520956 22.201206057569
2227 2 23.243581824308 16.884107524454 26.514933051555
2228 1 22.478968434303 17.457580222666 26.567156305283
2229 1 23.327466858153 16.680205533409 25.583472306733
2230 2 10.754642295192 23.254203813780 20.082670096664
2231 1 9.961988609960 23.684200019747 19.761679071647
2232 1 10.569104581280 22.318537309452 20.003072424614
2233 2 29.468180192871 26.561366265001 10.973288076962
2234 1 29.458457685697 27.435772210672 11.362584307395
2235 1 30.348913456594 26.470360553763 10.609614158877
2236 2 20.257680151233 1.429096024641 10.774563337457
2237 1 19.780099179879 0.743679552292 10.307281286407
2238 1 19.848173771882 1.460121199558 11.639186841529
2239 2 7.518688698792 17.045587177537 23.090017790188
2240 1 8.065038622117 17.787262966773 23.350115127630
2241 1 7.867493165584 16.304965286782 23.586048534075
2242 2 26.605681260094 14.137047211254 1.739518498772
2243 1 26.842565414980 14.979265688797 2.127829937246
2244 1 27.340558492823 13.560778860037 1.949523451574
2245 2 4.727723647472 1.522851142304 16.939895798600
2246 1 4.500823542328 0.705760730876 17.383868142151
2247 1 4.959540441044 1.256238247371 16.050283310787
2248 2 29.380970407790 7.666028241524 4.797764242805
2249 1 30.228315995762 7.812224301889 5.218316268693
2250 1 29.281881499386 6.714099643438 4.782106261531
2251 2 20.025276505415 17.271382998154 13.875856628088
2252 1 20.187025090841 18.160892622294 13.561465369183
2253 1 19.213714535691 17.338518776621 14.378938924085
2254 2 23.380176965426 11.081160467740 14.184905047313
2255 1 23.447177922611 10.854042950611 15.112353345144
2256 1 22.686319996487 10.514057243128 13.848470389036
2257 2 4.796248955413 7.733406805653 20.140620896557
2258 1 5.344645629831 7.580453145895 19.371141783485
2259 1 4.656844742409 8.680337781013 20.151576867571
2260 2 20.210366217371 10.845979905785 4.679595094465
2261 1 20.133276981804 9.910581055602 4.867526147875
2262 1 19.958992061415 10.927438935423 3.759591126969
2263 2 26.531029239621 1.621372049375 26.492557691286
2264 1 26.504843560813 0.784036303436 26.955607363350
2265 1 26.247463814043 2.264118396099 27.142711229451
2266 2 10.726437749178 23.324133112581 10.841156031416
2267 1 11.192699738902 22.619920050603 10.390694534418
2268 1 11.301297444276 23.566596380965 11.567089729792
2269 2 23.494077507168 1.412450374002 26.447616105694
2270 1 23.551483555062 2.024768825036 25.714129568538
2271 1 23.469776372662 1.970611361360 27.224853268376
2272 2 16.936768188859 14.007678534095 20.376323440065
2273 1 17.679942555458 14.102590222471 20.972071266112
2274 1 17.018498349313 14.744920111673 19.771321888693
2275 2 23.271576714545 19.978253491459 10.814359374525
2276 1 23.725906882506 20.579429258134 11.404616637118
2277 1 23.955914809847 19.387178001271 10.500443818654
2278 2 17.073800555069 26.479695376539 4.690985481908
2279 1 16.996566649840 26.653894817807 3.752944268237
2280 1 17.062001466286 27.346091983829 5.097740371713
2281 2 14.008671536184 20.218219068118 23.405733208852
2282 1 13.510240122780 19.412080279105 23.271799572374
2283 1 14.514790359539 20.324078058828 22.600208876053
2284 2 29.296267753043 10.905783331287 26.445277003873
2285 1 29.132400990013 11.691427073392 25.923603318065
2286 1 29.493991122028 11.236459955154 27.321513433032
2287 2 10.741659219107 17.038798557915 7.520398014338
2288 1 10.828196590822 16.823460939658 8.449038328701
2289 1 10.496873438520 17.964115781018 7.510408106830
2290 2 1.683547011350 29.287764585685 1.557139484324
2291 1 2.512518357721 29.080169997281 1.988350376765
2292 1 1.013598377932 28.932971481877 2.141538767410
2293 2 10.890768742215 29.475544729062 29.687730958335
2294 1 10.575160855948 30.194129089555 29.139771088471
2295 1 10.159090134600 29.281169762928 30.273475465521
2296 2 4.726584773242 23.449611962822 19.937432090018
2297 1 4.178057623643 23.814636974928 19.243093162195
2298 1 4.535638406706 23.990707325842 20.703582945415
2299 2 29.313134375203 23.419778186410 7.658400939862
2300 1 28.602902854449 23.895637810024 8.088936241018
2301 1 29.361598049782 22.586101323003 8.126232105633
2302 2 20.330676585443 26.395008376157 1.610657399272
2303 1 21.076889870298 26.694435709348 1.091291588265
2304 1 19.601676768546 26.369541872343 0.990865043601
2305 2 13.854985602476 13.920162750698 4.615566348126
2306 1 14.484508211125 13.205415880332 4.710803087363
2307 1 14.394361428379 14.708673535120 4.555931615943
2308 2 23.501599658167 4.460730957535 20.280644406682
2309 1 23.561987746012 4.738802173390 19.366717977609
2310 1 23.403681190888 3.509593513913 20.236131744379
2311 2 10.853445558450 1.570748507297 4.631566618068
2312 1 10.459353981509 1.503003528542 5.501241434789
2313 1 11.274432494178 2.430376786179 4.625158647043
2314 2 29.244544263543 7.809414651090 10.618307691393
2315 1 29.236279122998 7.017344423259 10.080917440611
2316 1 28.447488855842 8.277041062856 10.368788040719
2317 2 23.260613680810 20.360300729277 26.380378202141
2318 1 22.985767433735 20.569602680019 27.273061838086
2319 1 23.935456159498 19.690044918040 26.487972888170
2320 2 23.258707784923 7.571013249722 4.456317369260
2321 1 23.381827684887 7.046539351837 5.247519278174
2322 1 24.058909909707 7.432498158163 3.949639987781
2323 2 26.390527950281 26.463859693009 10.759129195582
2324 1 26.375739144842 25.592565525210 10.363074143357
2325 1 26.726970719205 27.035498976765 10.069008457953
2326 2 23.167148163150 17.192667151496 1.778043573929
2327 1 22.886128802978 18.047197557153 1.450877339400
2328 1 23.852005530256 17.393303312747 2.415967830812
2329 2 4.609415445339 4.745979037855 17.016729938094
2330 1 5.462532997471 4.845516555390 17.439239778036
2331 1 4.232678781547 3.962957142098 17.418199783687
2332 2 13.992882357978 23.439782184916 17.046957467197
2333 1 14.277891221998 24.132576273883 17.642808235194
2334 1 13.051021599078 23.364102882659 17.199937184984
2335 2 20.396633605285 10.834961891905 26.203209596660
2336 1 19.629606662138 11.370529703767 26.405863556363
2337 1 20.176724790463 9.965002511742 26.536440192540
2338 2 20.104791754870 20.393210420819 14.185327029145
2339 1 19.284721172338 20.070799950273 13.811472019616
2340 1 20.342348237150 19.739229141928 14.842675676810
2341 2 1.413771712293 26.232121337737 10.723126220876
2342 1 1.897743732839 25.449568510998 10.986970865868
2343 1 0.611355840865 25.895072277565 10.324681067415
2344 2 7.956857765974 4.684537167624 26.596427841339
2345 1 8.152990082101 3.754860156030 26.480390740874
2346 1 8.193868031580 4.868170672655 27.505458484292
2347 2 13.799838998534 13.841874256650 13.801312824695
2348 1 14.413312722068 13.140614260529 14.020666986663
2349 1 12.968938295745 13.393398623453 13.644133091477
2350 2 7.980024380136 10.678662623034 14.209821044147
2351 1 7.547951507147 9.837417839344 14.061996532170
2352 1 7.428645343853 11.314941785517 13.754451056402
2353 2 23.478660453443 10.866679970051 23.344611674813
2354 1 23.716344124349 11.790358847664 23.263644745535
2355 1 23.787315313980 10.467269198925 22.531325099875
2356 2 16.953458809161 1.718156503899 7.897064915027
2357 1 17.063636936265 1.683166649195 8.847258753344
2358 1 17.314304728719 0.889093141633 7.582937546454
2359 2 4.693274811408 7.544909670886 7.918829889851
2360 1 4.944868788695 7.164550560160 8.760411292617
2361 1 5.084259377766 8.418601622798 7.923858014127
2362 2 7.927254292494 4.575453195457 23.202108356191
2363 1 7.977743828404 4.712277039411 22.256084105715
2364 1 8.766876516334 4.891861063837 23.535503650192
2365 2 7.844904898212 20.123485539321 13.867984875556
2366 1 8.471230949803 20.402269710563 14.535987048429
2367 1 8.310641332087 19.454056306183 13.366800362646
2368 2 20.201826356383 17.082393910790 7.544451409673
2369 1 19.688921985733 17.387824547435 8.292698075396
2370 1 20.151954601790 16.127725168118 7.592951305135
2371 2 14.189970505763 20.071736792881 1.631564944128
2372 1 14.735809673880 19.978250722704 2.412302926573
2373 1 13.913681518150 20.988154348290 1.640230938762
2374 2 16.847355438441 7.560454325161 26.469428371810
2375 1 17.661060608901 7.452626608759 26.961860010864
2376 1 16.501566978061 8.404672642156 26.759182774568
2377 2 4.485846301825 20.401300687683 4.472067583662
2378 1 4.004933701831 21.171065247743 4.776069940962
2379 1 4.694953188314 20.594440837162 3.558173151749
2380 2 10.655651212411 14.185567630047 17.018565180754
2381 1 11.345574546834 14.812944993735 17.234517203549
2382 1 10.418866458521 13.790910196740 17.857856745505
2383 2 26.229527240090 26.607267083465 23.199728067396
2384 1 26.247066657432 26.060324463853 22.414375930013
2385 1 27.147437551097 26.826066344559 23.360349934810
2386 2 26.218172059855 23.489366933263 17.275706693087
2387 1 25.554277399572 22.917679935827 16.890155533046
2388 1 26.369370859855 23.126897512687 18.148625178414
2389 2 4.805182433188 29.610712188368 17.242682815462
2390 1 3.968179336294 29.914180247607 17.594200656847
2391 1 5.248559422248 29.210325729031 17.990572759739
2392 2 4.898464847776 29.703060699167 26.431246003479
2393 1 4.865409484058 30.277818622386 25.666528727208
2394 1 4.289717712483 28.993788870934 26.224867131140
2395 2 20.413152705443 4.815928873619 8.006957446733
2396 1 21.325282561242 5.100637480270 8.063455017122
2397 1 20.430560935848 4.073044572210 7.403590470314
2398 2 10.706139357183 26.342871454837 13.863172246685
2399 1 10.707543611711 26.162551425596 14.803233178287
2400 1 10.109802243843 27.084746834988 13.762005020862
2401 2 26.276948450940 13.917723516884 29.737468233710
2402 1 26.000134259070 14.409864636713 28.964549828345
2403 1 26.666243511400 13.117207358623 29.385537734513
2404 2 4.733857108455 4.874147500042 1.396002330533
2405 1 4.288667761200 4.136841150596 1.813635701035
2406 1 4.161358634335 5.623742176358 1.559051888546
2407 2 29.459805659830 29.706246516772 14.041358925972
2408 1 29.964575020799 29.595842994402 13.235597922649
2409 1 29.709951445064 30.571811077411 14.364556880010
2410 2 14.189627596674 13.858136451018 7.974403777691
2411 1 13.972976718387 13.018359469653 7.569349635005
2412 1 15.143027903189 13.915918596792 7.911786534321
2413 2 4.477464830767 29.425135973575 14.139500269434
2414 1 5.349522165381 29.030578100326 14.131019125460
2415 1 4.419247913067 29.860392354989 14.990026290748
2416 2 4.790884851271 14.184871258220 29.273552791840
2417 1 5.414490039508 14.880438072752 29.482203734147
2418 1 5.258837446546 13.619372126454 28.659172664763
2419 2 20.327388087133 1.775969096947 4.706656737547
2420 1 20.254003104002 1.367463518915 3.844119969073
2421 1 19.633840969062 2.435557333168 4.719602534360
2422 2 11.081215586151 4.594110428762 1.663374349992
2423 1 10.367850968496 4.250833467216 2.201429821063
2424 1 11.837817156605 4.056005937277 1.896246546336
2425 2 20.032298445825 14.057895511782 23.437892638116
2426 1 19.251067636540 13.626210981808 23.783665293491
2427 1 20.755103441621 13.482466307364 23.688224435448
2428 2 29.508239740141 7.841788923198 17.301075116454
2429 1 30.300362522620 7.321855320334 17.165272369460
2430 1 29.723742956938 8.421006985667 18.032031093008
2431 2 7.748755729440 23.521443976901 23.068690034102
2432 1 8.212817997022 23.374254948916 22.244545967905
2433 1 8.001037178500 22.781901384475 23.621557707644
2434 2 4.678461044138 4.485293697935 10.869666965778
2435 1 4.797087475361 3.957705195241 10.079850543031
2436 1 3.737647325379 4.658352828139 10.903606972384
2437 2 26.598470325832 4.449131151404 29.353061864152
2438 1 26.708264472547 3.498902660348 29.388316652923
2439 1 25.917851433622 4.636223687093 29.999580345448
2440 2 1.678024682640 7.953123096670 11.057828914628
2441 1 2.448405693492 7.801208884095 10.510410418287
2442 1 1.288710237654 8.754229992659 10.707266731666
2443 2 17.215657516770 10.836968311289 13.762818816468
2444 1 16.518039344453 10.747551817811 14.412099507963
2445 1 16.872460972500 11.464496184872 13.126692461191
2446 2 29.295455286316 10.920677196692 29.336665475638
2447 1 28.605006142779 11.078763949281 28.692832889600
2448 1 28.996066441041 11.372691636685 30.125513436504
2449 2 19.952783904776 23.096532391814 13.927274800074
2450 1 20.130749864851 22.890194010536 13.009677704685
2451 1 18.997741486691 23.101227536425 13.991335515609
2452 2 16.972698930602 10.678402360667 4.875986695414
2453 1 17.578828587337 10.701219426221 5.616471712647
2454 1 17.243715131404 9.914075503110 4.367472670318
2455 2 29.247814853938 26.519879509860 4.514434648718
2456 1 29.786718215885 25.794956800918 4.197729624219
2457 1 28.445358422786 26.103064803161 4.828378937380
2458 2 17.060446039068 29.699963822783 29.309670730132
2459 1 16.739639995388 30.399432283621 29.878932703770
2460 1 16.925440805733 30.031975183896 28.422104460457
2461 2 4.480307205767 7.978324953804 29.655073704613
2462 1 4.701976310160 7.992774490404 28.724006650610
2463 1 5.103339663389 7.362325084234 30.040568915268
2464 2 29.363467158083 20.013977103475 26.459049218274
2465 1 29.418093396052 19.822849297602 25.522717025114
2466 1 30.190004788517 19.691600265535 26.818410540396
2467 2 10.935399107190 20.155549853990 29.362814545833
2468 1 11.516859468034 20.841742031633 29.690344672855
2469 1 10.650390242586 20.471544042053 28.505405973327
2470 2 7.907804561071 20.056767722835 10.771764473095
2471 1 7.532795655529 19.589039098533 10.025553983507
2472 1 7.149425338299 20.351973786436 11.275695196986
2473 2 7.893661828725 4.557495058282 29.702803762295
2474 1 7.315631370140 5.163085460267 29.238720909809
2475 1 8.413452129631 4.145444889560 29.012684539595
2476 2 29.373092392814 8.001809184178 29.460327516756
2477 1 28.817815816297 7.425041031931 28.935695967833
2478 1 29.956518204366 7.408295927770 29.933178631677
2479 2 16.826554396895 23.060308082163 29.289050806956
2480 1 16.178372843258 22.498383554518 28.864394076459
2481 1 16.687613164038 22.921406143277 30.225871721104
2482 2 10.647122821005 19.959835660176 20.112589315872
2483 1 10.187806338869 19.148764226113 20.330358317536
2484 1 10.293031811785 20.214839823391 19.260636104754
2485 2 23.198535015866 10.684872605263 16.859657425841
2486 1 23.241810339067 11.315392920543 17.578547694534
2487 1 22.290474291990 10.382123313754 16.860311829129
2488 2 29.726344606751 13.927337328386 1.412724114497
2489 1 29.212987042734 13.766615394604 0.620976483324
2490 1 30.586246400962 13.552954823691 1.221312295395
2491 2 11.050358782786 7.694157121921 29.449409713656
2492 1 11.569582501104 7.113718109313 30.005942842031
2493 1 10.712695510359 8.361088652578 30.047253913988
2494 2 7.877748997590 20.224649033585 20.249673136671
2495 1 7.080484673946 19.920725999687 20.683530518432
2496 1 8.318594816052 20.762710952394 20.907226310088
2497 2 23.341474160687 7.647756901300 7.852249694802
2498 1 23.877453404671 7.491366682589 7.074753592232
2499 1 23.874199290381 8.225499961258 8.398737327657
2500 2 7.719943849921 4.451693603059 17.099771412591
2501 1 6.920093756750 4.951758354484 16.937269373111
2502 1 7.594290941444 3.634566559553 16.617333249339
2503 2 19.937148387041 10.869354549914 14.194237076029
2504 1 19.047311346748 10.563317255610 14.018843073232
2505 1 20.256107155881 10.294044616302 14.889589953399
2506 2 26.620972795472 4.775857800786 23.354437356889
2507 1 27.191096912334 5.523893205505 23.532295065915
2508 1 27.010839317797 4.353629690741 22.588957534909
2509 2 14.199918479923 26.201382457229 7.875454334420
2510 1 14.642919293673 25.891915391440 7.085383290647
2511 1 13.451702841335 25.613102787739 7.977101905164
2512 2 1.397215794629 1.651044902980 19.979095937050
2513 1 1.744596308249 1.808548808314 20.857020272378
2514 1 1.862165961629 0.872284646503 19.673178227302
2515 2 1.640829053908 4.502553617096 4.752596682202
2516 1 2.276882219612 5.190569058015 4.948308111236
2517 1 2.125471785165 3.686091956933 4.874019993483
2518 2 4.700586816848 23.160988173258 23.052691800859
2519 1 5.536902981302 23.592406696602 22.877519968681
2520 1 4.681406914035 23.051743187227 24.003443873881
2521 2 20.405143274462 4.763766699576 29.562121498002
2522 1 19.952888289843 4.971926419563 30.379658530718
2523 1 19.986963052684 5.322979362949 28.907416725424
2524 2 23.164283758619 13.816587879486 1.353022372162
2525 1 23.226081394972 14.700654320277 0.991305051028
2526 1 22.320326687777 13.800407847245 1.804360946996
2527 2 20.225621624169 29.369188704555 17.039527788012
2528 1 19.452547030230 29.350985845082 16.475385812874
2529 1 20.961770703787 29.462795384050 16.434917035435
2530 2 16.885107012203 4.484906659392 17.137335143812
2531 1 16.652139659983 4.612440955510 16.217719432705
2532 1 16.624298815845 3.583928431300 17.328251767543
2533 2 29.426514127014 23.322961272129 26.339394950801
2534 1 29.240328267348 24.244593829092 26.160062590069
2535 1 29.762469734958 22.980415990047 25.511126637261
2536 2 29.330405950936 11.007307579271 20.228128050031
2537 1 30.181362355048 11.357470874028 19.964517152485
2538 1 29.448726285583 10.057484961043 20.219813465693
2539 2 26.524899225620 4.788220428548 7.977446784602
2540 1 25.960589988954 4.069152767749 7.693318953151
2541 1 27.270785705648 4.357380323172 8.394893790234
2542 2 4.808977852448 26.426567666523 1.375942703851
2543 1 4.903342099394 26.459303753490 0.423968136171
2544 1 3.891593712616 26.649421718478 1.533975142014
2545 2 14.059661367770 26.178966243924 4.737940425788
2546 1 14.800072855927 26.066386553470 5.334051557627
2547 1 14.448173452556 26.145801064986 3.863760655443
2548 2 23.056910177585 29.669778996689 7.547742227331
2549 1 22.941909245815 30.375063118832 8.184594590712
2550 1 23.024671033843 30.107105712562 6.696896870527
2551 2 23.194588053013 23.451342062000 1.535679136100
2552 1 23.433784215377 23.555579221848 2.456630627991
2553 1 22.615743902113 22.689103921157 1.522860961026
2554 2 23.211864171079 17.161701916691 10.637778439309
2555 1 22.677433747698 16.526952184128 10.160590070240
2556 1 23.304447567395 17.899128332709 10.034568330238
2557 2 26.472695668874 20.276964287906 17.258439105716
2558 1 27.324811498682 20.711683711330 17.224535190196
2559 1 25.846101678186 20.957601878207 17.012788374998
2560 2 26.377781856365 1.662996162973 23.217015743245
2561 1 25.606115445810 1.746805554372 22.656891849151
2562 1 26.190423319628 0.905928558261 23.771972733116
2563 2 17.101077780811 13.869898870112 23.444521537217
2564 1 16.494364914008 13.624676309465 24.143089524607
2565 1 17.961287886878 13.874342014613 23.864343728014
2566 2 10.963828891993 20.382616194648 10.808956477377
2567 1 10.777426929037 20.453906143209 9.872792019901
2568 1 10.170867447005 19.998486228196 11.182972727875
2569 2 14.201777682393 7.734455306006 20.197743197725
2570 1 14.996534693353 8.176269735745 19.898756336467
2571 1 14.492322203776 7.183968582569 20.924915865263
2572 2 7.976069254629 23.083163685667 13.733661018651
2573 1 7.818316698179 23.301292630094 14.652228236952
2574 1 8.760196895472 23.580049438674 13.500251011745
2575 2 4.612008214901 7.533444156912 4.611203711259
2576 1 5.553450801577 7.441322411666 4.464809448916
2577 1 4.315609583038 8.113095212438 3.909502674592
2578 2 26.359321440506 10.986306372018 17.263306474539
2579 1 26.287579182124 10.260065898865 16.643903807838
2580 1 26.067856335594 11.752671967223 16.769379650905
2581 2 26.412309732904 4.434301019253 26.575469195088
2582 1 26.716438580754 4.229856652756 27.459742899839
2583 1 27.094401359776 4.086872683648 26.000772401840
2584 2 1.711881249434 29.562910793815 26.335503580952
2585 1 1.622620939706 28.653182199704 26.619507669240
2586 1 2.052598098047 29.503357955262 25.442980568088
2587 2 26.203322116385 10.681462253996 29.510466104418
2588 1 25.690477284764 11.488636537626 29.469335890121
2589 1 26.514078279542 10.548677171300 28.614904510292
2590 2 1.429109558136 1.315450220034 1.672851857464
2591 1 0.514113289341 1.580038867400 1.577949192711
2592 1 1.565128278583 1.256821679393 2.618522752602
2593 2 29.353946728664 14.171479759387 23.212930895160
2594 1 29.836969813119 13.353449330751 23.095684327148
2595 1 28.604158108688 14.094126369117 22.622960287105
2596 2 23.366214604495 10.679267392824 7.704457474857
2597 1 22.974805011481 9.945936726540 7.229845523486
2598 1 23.683255672871 11.267085471050 7.018755857626
2599 2 1.627374830481 13.833682861765 26.520663652879
2600 1 1.564408328519 14.487528176295 27.216905970106
2601 1 1.675791340848 14.346271460448 25.713730811793
2602 2 13.720933747437 7.890272851368 23.496764922657
2603 1 13.712627718134 8.843391996405 23.584666829583
2604 1 13.714145266956 7.566138491937 24.397388414228
2605 2 29.671331392102 29.628479389654 29.417246547882
2606 1 29.156012415887 29.117575341308 30.041470262697
2607 1 29.315214733454 30.514706734082 29.480601574690
2608 2 16.860112834632 20.277282715502 23.268773500580
2609 1 16.206251489312 19.587471299187 23.155383064400
2610 1 17.050298066394 20.275815278066 24.206888239962
2611 2 23.085361340886 23.412488152490 10.872808132580
2612 1 23.214529047770 23.682635382431 9.963650270790
2613 1 22.390064587607 22.755909189120 10.831597336190
2614 2 29.509314033547 17.109688159660 13.819594368865
2615 1 29.820745483074 16.313887949110 14.250806981313
2616 1 30.261757278507 17.701147680594 13.834977418308
2617 2 4.468932613624 10.878583305466 17.147817932132
2618 1 4.575641215020 10.626205037882 18.064960409853
2619 1 4.182269673935 10.077030584554 16.710131475170
2620 2 1.728284388254 26.533945023032 1.645209587767
2621 1 2.123289041967 27.271471331243 2.110245186664
2622 1 1.422946642749 25.948857072536 2.338515286110
2623 2 20.415198824685 23.148552188912 7.528213866731
2624 1 20.689141415132 23.142216294887 8.445354615791
2625 1 20.353337713019 24.076732535367 7.302633975518
2626 2 26.526426562064 7.743367804674 17.006876045200
2627 1 26.376245967116 7.870609835734 16.070133233948
2628 1 25.877684527954 8.304081858385 17.432276283975
2629 2 23.408933654595 10.898675559549 1.439541312025
2630 1 24.031250994756 10.200651439297 1.235298085257
2631 1 22.562211113097 10.556924852794 1.152314516356
2632 2 1.744553611599 23.378635480590 4.741847296392
2633 1 1.221637783741 23.659620843784 3.990955757855
2634 1 2.138297808545 24.184878410261 5.075268480073
2635 2 20.321399908596 11.042916248499 1.539148954549
2636 1 20.336006865630 10.365744837696 0.862793014826
2637 1 21.238656954535 11.294527233871 1.646681571532
2638 2 17.276611567897 1.494857059506 4.497257769103
2639 1 16.421263359600 1.872378552130 4.292102205760
2640 1 17.538664151348 1.923005588686 5.312272566802
2641 2 23.424744454053 23.098189107186 16.863652357009
2642 1 22.551530382285 23.437324293672 16.666887649414
2643 1 23.968329650210 23.879473095238 16.965349478564
2644 2 10.839025976221 23.332817419327 16.844381423185
2645 1 10.454458698722 22.483561933270 16.627344632574
2646 1 10.349335289399 23.628965002298 17.611669817689
2647 2 10.842660467278 26.573609368882 23.467351329990
2648 1 10.650697615537 27.135930792054 24.217802341444
2649 1 10.116153529585 25.950891293045 23.442019383562
2650 2 20.207960971257 29.487657477526 13.876499398641
2651 1 20.569495855838 28.601490450806 13.891743019815
2652 1 19.857574876328 29.588708561431 12.991485216314
2653 2 20.208447416587 26.618887584884 29.299442742526
2654 1 20.348805888197 25.885687413941 29.898566142817
2655 1 19.293830039219 26.536460105051 29.029419403562
2656 2 20.117130496621 17.190750479996 11.021043815919
2657 1 19.686420395591 17.012975775820 10.184911766883
2658 1 19.402459040561 17.419620956192 11.615261667399
2659 2 13.737809667513 7.747017404427 1.780844708518
2660 1 13.111933894188 7.703323661579 2.503757022150
2661 1 14.071093268064 6.853580964912 1.697626860982
2662 2 17.296245072007 7.546881562205 11.076301675985
2663 1 17.830245671969 6.757174852188 11.162548481106
2664 1 17.924524996213 8.240763189957 10.876240526564
2665 2 1.743376080274 17.242334118108 1.695749692099
2666 1 1.895873854003 18.172971202393 1.531765283201
2667 1 2.243019236275 17.053590231134 2.490082306179
2668 2 4.671624811023 17.292442594713 26.146218216430
2669 1 5.006398900116 16.421649776990 25.932026671605
2670 1 5.425133106582 17.756044733684 26.511635984559
2671 2 23.447877514263 1.689796540706 1.304372460762
2672 1 23.460056088965 1.968050545772 2.220155312197
2673 1 22.978033120423 2.387630493064 0.847748041229
2674 2 7.874009543160 14.009366198927 29.586065186082
2675 1 7.381518866410 13.253638601352 29.906315980894
2676 1 7.624769448682 14.085450554409 28.665021003561
2677 2 20.103071598297 26.153626001538 20.423645673297
2678 1 19.543651380633 25.476265302563 20.803729010939
2679 1 20.995078202617 25.860433267301 20.609640507741
2680 2 17.272594339783 13.866796314128 26.163581391616
2681 1 17.143464838811 13.283701852382 26.911617661231
2682 1 16.423802881453 14.292093596126 26.041486665312
2683 2 16.897883768365 4.847377619994 20.169080828453
2684 1 17.624008111662 4.380002549611 20.582040659014
2685 1 16.295262261863 5.037827954177 20.887974304645
2686 2 10.635065044345 29.672546677370 17.120078504653
2687 1 10.764470087753 29.602832839092 16.174231711830
2688 1 11.506660821679 29.537868228688 17.492119304020
2689 2 17.032360641616 17.262699696471 4.858469215954
2690 1 16.207091978549 16.836594056757 5.089980463117
2691 1 16.946033761381 18.153480301611 5.198012178263
2692 2 29.267069992903 10.874910363851 17.102601144231
2693 1 29.794103514743 11.169214819078 17.845468827262
2694 1 29.894470609608 10.453539353278 16.515194319613
2695 2 10.950292357209 10.843616352670 26.543843838043
2696 1 10.076494333176 10.612026339683 26.229082151872
2697 1 11.298462500708 11.432180553543 25.874066582064
2698 2 14.107132084833 17.199358401042 26.612608775694
2699 1 14.649335412386 17.474093911453 25.873171292935
2700 1 13.444682420394 16.627383074748 26.225005230565
2701 2 7.882021063975 10.867958278564 4.852174341797
2702 1 7.469021582904 11.723093927466 4.732148133772
2703 1 8.413194459898 10.745428617181 4.065362327689
2704 2 14.119897177719 29.354329417843 16.828294372377
2705 1 13.710530277960 29.491687459162 15.974020792154
2706 1 13.920806129034 30.150686356399 17.320646097008
2707 2 23.072149089598 17.320789094577 20.350810376023
2708 1 23.022324377339 17.581300429292 21.270529454075
2709 1 24.007632160031 17.332485826306 20.148408668025
2710 2 20.362160634795 7.840723524685 1.613975891556
2711 1 20.078460554940 7.197608056038 2.263705526617
2712 1 19.787023588992 8.592970894378 1.753879834799
2713 2 29.324902019098 11.056866173845 14.052182380944
2714 1 28.602269053944 11.009507540090 14.678114164352
2715 1 29.357255629355 10.185818014073 13.656631894581
2716 2 4.739232074252 23.115225336722 14.043230420728
2717 1 4.024460599841 22.685881113308 13.573127115922
2718 1 4.774778560245 22.666268623385 14.887864161994
2719 2 11.056734141600 1.752006009657 13.810759247465
2720 1 11.315315585770 2.667536694243 13.705066095790
2721 1 11.713691335866 1.258823772584 13.319423958748
2722 2 10.729829742724 4.596739715423 29.272076993646
2723 1 11.379709328333 4.630393375982 29.974042659003
2724 1 10.671582170987 3.669126044438 29.043227834178
2725 2 1.787905950976 1.498557175376 13.906468976328
2726 1 2.505398565639 2.105185199648 14.089331296318
2727 1 1.040165448690 2.063234066320 13.710877590843
2728 2 7.971745130984 13.733206753109 13.961035738061
2729 1 7.610105477209 13.473075534700 14.808254924592
2730 1 8.124133647462 12.907516440099 13.501421674908
2731 2 26.139666636108 26.600966424169 4.677424264112
2732 1 26.146305921613 25.945683654835 3.979719274807
2733 1 25.775207659830 26.142021626941 5.434240733085
2734 2 26.413321955275 1.785730926502 20.129072163901
2735 1 25.821159086422 1.659839730268 20.870507517430
2736 1 26.109498631181 1.161041839838 19.470523173514
2737 2 10.681170524693 26.562293826967 7.591007829360
2738 1 9.834882767916 26.899302800055 7.885038142063
2739 1 11.215454448044 26.529989263557 8.384562455351
2740 2 1.351704949396 29.492477857022 4.865830742820
2741 1 0.901043985311 29.634895318663 5.698209143592
2742 1 0.692722900657 29.687853790984 4.199645525431
2743 2 29.315594122709 10.914024728781 4.705205808507
2744 1 28.633892525747 10.242339959900 4.724029834464
2745 1 29.481702415889 11.113260433211 5.626587927400
2746 2 7.871968690898 11.110946036422 7.596670272417
2747 1 7.726046564895 10.213919471783 7.897139764172
2748 1 7.030217742426 11.380999561626 7.229575905433
2749 2 23.268728995329 4.635387852641 16.967954139726
2750 1 24.042869722011 5.008354859578 16.546250941934
2751 1 22.679629399640 4.423518225227 16.243865217467
2752 2 4.665963748673 13.853961318622 20.084682591068
2753 1 4.388126470514 12.943067164367 19.988193593720
2754 1 3.892926922884 14.306143954798 20.422583123050
2755 2 4.487550899584 1.570195622002 10.931472069574
2756 1 5.343365875210 1.891625843650 11.215188794684
2757 1 3.946103349921 1.600941274493 11.720218604158
2758 2 23.243407542090 20.330260223063 14.034316830336
2759 1 22.506498592136 19.990120000052 14.541763052282
2760 1 23.977946928357 19.762693368184 14.267879659708
2761 2 1.523527432951 20.382044935819 19.960350959547
2762 1 1.289785072856 19.803102590185 19.234801437095
2763 1 0.997203736632 20.069232147829 20.696124950908
2764 2 26.554254817209 14.092266092910 7.530859987711
2765 1 26.036809223882 14.897475695268 7.519933221704
2766 1 26.284513918338 13.644519125769 8.332729266891
2767 2 1.688853206831 7.983362832703 17.207084563063
2768 1 2.402223992614 7.824476494654 17.825218119483
2769 1 1.033118418492 8.461109943215 17.715022970510
2770 2 14.026431868416 20.320473356146 17.195129971996
2771 1 14.651902598419 20.740571232174 17.785499331352
2772 1 13.919575809985 20.943216476049 16.476099632309
2773 2 10.802281288559 7.796156721264 7.794137663708
2774 1 10.616574750047 8.628841096589 7.360108110978
2775 1 10.421274369550 7.134435702794 7.216910792035
2776 2 23.446278831855 20.237211647205 1.680020027576
2777 1 23.575635416617 19.650834993938 0.934593213943
2778 1 23.885280104362 19.799023504308 2.409061092374
2779 2 1.310892768569 29.675368832179 23.468525878287
2780 1 0.384511547835 29.477495427521 23.605987835212
2781 1 1.751980270013 28.830086207118 23.553207280258
2782 2 1.342508965919 20.015857716842 1.562145262657
2783 1 0.645903485873 20.537887412046 1.960212647022
2784 1 0.941308240230 19.636767304544 0.780122067982
2785 2 29.566049267342 4.563428566944 29.362592004304
2786 1 29.552270943603 3.668376255534 29.701595481622
2787 1 29.964100583373 4.485565361288 28.495571640638
2788 2 14.115801823507 23.511456309712 29.488927737693
2789 1 13.751743425231 24.030211779602 30.206274296271
2790 1 13.719082855475 23.881036214598 28.700095312960
2791 2 17.257393766485 1.470929115253 26.468792731763
2792 1 17.934143298121 1.989426506623 26.903996553637
2793 1 17.081038587175 0.750348896551 27.073685151245
2794 2 4.798363667335 10.911516183311 10.950750802478
2795 1 4.571228582140 11.841370217351 10.954351976442
2796 1 4.019144302225 10.475467091574 10.605917204010
2797 2 1.630960653872 26.161762649225 17.067256691695
2798 1 2.412002735886 25.656634139392 17.293199814355
2799 1 1.748157261932 26.384672628914 16.143780684419
2800 2 4.426331438554 4.879335669068 4.689060288249
2801 1 4.178725617626 4.211999991040 5.329049577436
2802 1 4.850525605783 4.390112181131 3.984112398445
2803 2 7.681380525335 7.778163549560 20.152359773614
2804 1 7.762799963724 7.545160041461 19.227528934884
2805 1 6.902773823852 7.308027346339 20.450647210204
2806 2 10.918200010795 20.141301003525 14.182660754270
2807 1 10.633978617272 20.963470867975 13.783302827776
2808 1 10.771225540665 19.481772516023 13.504683970521
2809 2 10.990354905302 7.670177972461 26.177569539789
2810 1 10.677852977084 7.169679344603 25.423861699593
2811 1 11.679663143596 8.232036037051 25.823448786550
2812 2 4.443396160391 10.635648151678 7.704201688647
2813 1 4.592567853949 10.728387328674 6.763255839572
2814 1 4.151687749243 9.730480798772 7.812876000694
2815 2 26.530856963142 4.736077747325 13.981885889545
2816 1 25.999794207324 4.459602907189 13.235048656840
2817 1 26.973755762335 3.937918236830 14.270007199899
2818 2 4.549984595998 17.173506208814 1.675118623278
2819 1 5.133048418526 17.133158843544 0.917068157296
2820 1 3.688102582171 16.944381773085 1.327421589651
2821 2 17.310455657217 20.259211894751 29.735903837629
2822 1 17.347767126705 21.178206733790 29.470784656760
2823 1 16.554290397817 20.208630654796 30.320615286672
2824 2 1.730422982559 7.915369571609 23.218778066303
2825 1 1.618706707743 8.865675232110 23.244671416061
2826 1 0.919729446742 7.588977174406 22.828296525083
2827 2 7.581416921083 7.602913564489 23.089645555584
2828 1 7.720998790243 7.960189896106 22.212660741196
2829 1 8.453705112884 7.585707180237 23.483408289711
2830 2 20.084153164188 29.686279645769 29.322130967272
2831 1 19.845737904666 29.587978970753 28.400324598603
2832 1 21.022366583346 29.875492541058 29.308496438717
2833 2 26.281395607940 10.639590093365 23.263194520043
2834 1 25.642412215592 9.992808543958 23.562536618069
2835 1 26.211933057571 11.355620808679 23.894626867030
2836 2 1.389773138459 20.422266776853 10.645636543755
2837 1 1.686820689134 19.554430226952 10.372041376960
2838 1 0.653223341805 20.249942406107 11.232177717326
2839 2 23.507954777720 7.991108767526 13.796438409523
2840 1 23.314625538073 8.425465546968 12.965661764900
2841 1 24.028357319245 7.225897359411 13.551766106912
2842 2 20.223745030566 23.223297241388 20.049254175883
2843 1 20.233527050558 24.146496262011 20.301919409753
2844 1 19.394726064632 22.889441359382 20.392036386875
2845 2 7.562780291457 20.369817308608 17.198711359664
2846 1 7.606807505853 19.596481544900 17.761068222308
2847 1 7.392937112227 21.094684693691 17.800336166759
2848 2 4.857149808318 26.285770826541 13.884929564493
2849 1 4.615935026893 26.362510399566 14.808053774529
2850 1 4.560675729616 25.411702957015 13.631275626775
2851 2 29.290630100864 13.807487082223 7.646687481793
2852 1 29.604974698913 14.430334468242 6.991339904238
2853 1 29.564948861056 14.181317164767 8.484083521425
2854 2 14.096674938615 20.363283636174 10.891952113810
2855 1 14.003090414660 20.411841750573 11.843327899923
2856 1 13.766412458924 19.494700146005 10.662341018447
2857 2 4.710377878009 23.484262615978 7.850789585538
2858 1 5.391358809783 22.815493144697 7.778372703240
2859 1 5.119216784847 24.189769941268 8.352129791604
2860 2 29.599813914238 17.002486703386 26.355522369445
2861 1 28.655129088056 17.115431653146 26.460621643972
2862 1 29.704781097113 16.679246453974 25.460687484296
2863 2 26.186200719498 1.444015483622 7.681223658048
2864 1 27.010859558741 1.245284050638 8.124704724615
2865 1 25.704442176082 1.989097969983 8.303337497235
2866 2 26.144620209156 19.960780136937 4.856233146365
2867 1 26.195199751105 19.143163532332 5.351386292180
2868 1 26.544761127404 20.614047997249 5.430132256163
2869 2 1.368854729846 1.723117800761 10.875682758503
2870 1 1.979889606026 1.947445152915 10.173866928554
2871 1 1.919297003464 1.633706097394 11.653661351214
2872 2 7.669653294820 17.141462309161 14.215105137512
2873 1 7.419392811339 18.051556758468 14.055952306090
2874 1 8.562320018062 17.194234137167 14.556562448732
2875 2 1.756426301314 20.024547196162 23.154226317074
2876 1 2.332316254847 20.705034275759 23.502823413907
2877 1 1.926666655964 19.260611219220 23.705272490078
2878 2 17.166716684481 4.896477341914 10.710322907941
2879 1 16.706080482515 4.637673234903 9.912158411341
2880 1 18.068663493368 5.048660324683 10.428251757885
2881 2 4.508958392672 26.495010667514 10.792724121611
2882 1 4.961294367321 25.671329437345 10.974859338155
2883 1 4.739418332815 26.700094865172 9.886600218461
2884 2 13.878259419893 4.451454084285 17.165901371602
2885 1 13.425549915106 5.164086354627 16.714856815551
2886 1 14.104762577300 4.814835150911 18.021986858047
2887 2 1.617973549297 13.826182930254 29.444653063094
2888 1 1.789948657367 13.303254946121 30.227725681447
2889 1 1.260119935794 13.202158121014 28.813174109560
2890 2 26.363798866096 29.401311380473 13.900600327140
2891 1 26.221796388150 29.804543385780 14.757029592260
2892 1 27.229601406481 28.998341433271 13.965662011058
2893 2 7.931023006915 29.466442656006 14.206593811262
2894 1 7.389199634421 29.597977245480 13.428546303207
2895 1 8.738520354420 29.945557767182 14.020506240442
2896 2 26.448838133922 20.388098241954 7.809363818940
2897 1 26.330683124660 21.306589099331 7.567194913627
2898 1 25.860520416131 20.258436786763 8.553206550955
2899 2 26.273453438341 17.290902611875 29.498018324362
2900 1 26.983683626193 17.879971237271 29.243453843655
2901 1 26.679869400952 16.673943105834 30.106638791682
2902 2 23.269581894708 29.326257945747 29.432179841557
2903 1 24.193184323123 29.114090955582 29.297363067712
2904 1 22.794787844042 28.609722229705 29.011015957673
2905 2 7.869849952500 1.310463323145 23.417949751867
2906 1 8.376858700005 2.122089830487 23.397059980850
2907 1 7.274441843735 1.418461816663 24.159608264536
2908 2 26.266616142347 7.537913849725 29.721983896985
2909 1 25.952049991270 7.183499460912 30.553651148714
2910 1 26.360689878711 8.477019469404 29.881553966902
2911 2 13.795582567145 1.700589345361 4.426086470724
2912 1 13.206738000599 2.296422482609 4.889202858909
2913 1 14.563992541073 2.233443924147 4.221528533123
2914 2 26.577273694382 20.153889007823 26.278614736677
2915 1 26.672079676030 20.167759306620 27.231007135142
2916 1 25.900543218796 19.497167350819 26.114345541036
2917 2 1.341635428133 17.137983071100 10.950209633899
2918 1 0.700481664223 17.643802935909 11.449509098537
2919 1 1.504277751517 17.663338286084 10.166767732586
2920 2 4.512236935703 13.899736454389 4.683525577813
2921 1 4.903451036729 13.535531198564 3.889461412403
2922 1 5.065699153793 14.649659116795 4.901533406929
2923 2 17.140218908382 1.769309755413 14.152105925904
2924 1 16.404096603038 1.160733031892 14.215273664218
2925 1 17.835144830214 1.262592612646 13.731930319293
2926 2 1.379442929599 20.145637924510 7.606652824663
2927 1 1.056995452969 19.864511087267 6.750365976581
2928 1 2.295465381477 19.868279460968 7.621039984071
2929 2 26.584216679013 29.627894672086 20.287803661841
2930 1 25.737120785035 29.246677563964 20.518745002619
2931 1 26.938587401463 29.946047038690 21.118124264196
2932 2 20.245518762805 4.457965058123 10.707793730970
2933 1 20.340161457080 3.563547930958 11.035349227115
2934 1 19.680848317779 4.889800536553 11.348806404857
2935 2 1.440973750766 17.168829369344 29.722654151919
2936 1 2.073210321122 17.081252902268 30.435983754220
2937 1 1.467839060887 18.097130978507 29.490778716529
2938 2 14.109482435534 26.309708235751 29.311525121576
2939 1 13.458663798502 26.083869137472 29.976102914900
2940 1 13.678651684445 26.969559856564 28.768190471082
2941 2 11.010525408376 29.551077713489 1.595150686683
2942 1 11.167564612747 28.938109255613 2.313370846481
2943 1 11.211034759615 29.050532564401 0.804276237866
2944 2 7.513841865429 23.428794860288 19.976858349765
2945 1 7.756521585002 22.768650803114 19.327590902956
2946 1 6.928587116870 22.969359597563 20.579044333207
2947 2 7.645347240303 26.576159028801 4.628245530983
2948 1 6.949214328115 27.121855185102 4.262395133188
2949 1 7.488424385035 25.707240817781 4.258667122451
2950 2 29.366683619206 26.234470355189 23.128016922376
2951 1 28.697316973336 26.305765023555 23.808529379028
2952 1 30.110911573997 26.729411071368 23.470639570163
2953 2 10.771692572885 19.980330397352 4.596942751700
2954 1 10.558768892447 20.756068394653 4.078169288758
2955 1 11.400488337794 20.292079066607 5.247834826664
2956 2 26.491494970911 4.583383350243 1.790114677619
2957 1 26.114771923805 4.659526534668 2.666763867001
2958 1 26.532445232461 5.483639931045 1.467480202089
2959 2 29.612864938806 19.985991685896 17.172064561559
2960 1 29.387824545123 20.274349044765 16.287508913339
2961 1 29.416777479650 19.049100975861 17.176229391897
2962 2 7.538513805709 1.602534528130 7.560647439935
2963 1 6.916886219969 0.893588993163 7.725593531424
2964 1 7.605473210490 2.062528792384 8.397399228081
2965 2 26.265266851156 23.252188460162 7.617012909735
2966 1 26.331550518093 23.939521134075 6.954131237889
2967 1 27.155174800704 23.160459870109 7.957426697791
2968 2 14.029942707970 14.196479168753 1.744212412488
2969 1 14.764140070544 14.284484460278 1.136395711950
2970 1 13.552231631815 15.022127028954 1.664653763279
2971 2 10.924655971279 20.029658625063 23.383227769178
2972 1 11.805788634780 19.661372473570 23.448053535116
2973 1 10.846268953546 20.600410840181 24.147642070711
2974 2 29.259046049566 20.037189613788 14.046560396067
2975 1 29.510666027719 19.535169486284 14.821734581766
2976 1 29.247839057831 19.394280309161 13.337494905890
2977 2 23.509777604013 13.893238294275 19.979448195355
2978 1 23.552250368510 13.038479469942 20.408185010313
2979 1 24.306087283809 14.343156755680 20.261753193450
2980 2 7.589938660209 10.651280414101 23.350839425498
2981 1 7.503962224023 10.179846705762 22.522232069109
2982 1 8.424396527250 10.351922528631 23.711805856818
2983 2 17.108340484885 4.483094284457 23.046660743541
2984 1 16.383791477562 4.658801841558 22.446337971722
2985 1 16.781829265457 4.757305520988 23.903649927456
2986 2 26.158062860634 14.165884081321 20.058609842624
2987 1 26.299810815505 13.740047038667 20.904069581697
2988 1 25.645560841096 14.947176978602 20.266347486364
2989 2 10.797137451738 7.579764683150 20.348744833977
2990 1 9.905144236430 7.888972859796 20.190725065148
2991 1 11.243810350818 8.327896952160 20.744993833086
2992 2 7.706453387316 20.171404255446 1.341193903982
2993 1 7.330487163518 21.033239107424 1.161967994920
2994 1 8.650390666677 20.296234984408 1.243053485502
2995 2 4.528068126865 11.084270894006 13.895016376572
2996 1 5.018578058384 10.737611599641 13.149725037087
2997 1 5.199704025545 11.415317083913 14.491292721695
2998 2 4.674658251621 23.123440111422 1.379401875102
2999 1 4.164205091515 22.782417135558 0.644981871786
3000 1 4.284953742117 22.715298735030 2.152566056986
